256
22.876152 22.876152 22.876152
Ar  3.5906867  0.2241049 21.3715208
Ar  3.1590448  3.2982917  1.6089196
Ar  1.2378741  5.6768409  0.3606590
Ar 22.6500978  1.8610826 22.7729353
Ar  2.1203741 22.4277472  3.8309041
Ar  5.5677042 22.1369615 12.6598625
Ar  3.9182319  3.1219361  4.9878959
Ar  2.5275812  2.7954245  7.8915231
Ar 19.4702364 19.5291707 10.0042431
Ar  1.1986253  1.4773501 12.4011555
Ar  2.9718701 22.8734993 10.2488858
Ar  2.4814978  4.6186192 11.4282754
Ar 22.8264907 21.1364521 15.8779635
Ar  0.5001715  0.4467650 19.2715121
Ar  0.9966939  2.1884158 16.3453936
Ar 20.5503478  4.4933484 21.5394376
Ar 20.7110916  6.1632171  1.4797092
Ar  2.9884730  6.4120234  3.0764918
Ar  2.2477158  9.4753326  1.2935359
Ar 22.6606390  9.7091067  3.6641433
Ar  0.4718647  2.9916951  3.6659038
Ar  1.5534654  6.0730430  7.2677592
Ar  7.6399552  9.8342884  6.4161779
Ar 21.7239034  5.6843993  9.5678057
Ar  4.1078824  7.3576413  9.4646136
Ar  4.9247130  5.5821891 13.9191328
Ar  5.9543629 10.0798897 12.3583551
Ar  1.3690036  7.3708795 12.5998771
Ar  0.9300511  4.6005519 19.2039687
Ar  2.4722701  9.4005990 20.4569185
Ar  3.6336166  9.2190337 15.3461745
Ar 21.1480467  7.4254512 19.0446503
Ar 22.3489721 11.0925146 20.4747423
Ar  2.5807369  8.9726079  5.8746684
Ar 22.7219808 12.6773497  0.6684425
Ar 21.3720076 15.8239808  4.5578265
Ar 17.6958572  8.3902343  6.9214856
Kr  4.7285610 10.9434437  8.1441111
Ar  3.4894554 15.3158239  5.1874418
Ar  1.3019173 12.5506813  7.3594026
Ar  0.2263076  9.5343846  9.8831779
Ar  2.1433526 12.5407271 10.5007226
Ar  2.7985381 16.2180043 11.5752426
Ar 22.5467776 13.8730694 12.7994471
Kr  0.0356673 10.8732850 14.5329757
Ar  2.7421796 12.4699776 21.6696979
Ar  3.7453148 15.8500512 19.0270980
Ar 20.1139999 16.9606401 21.0543136
Ar  1.4503855 16.1485485  2.0497754
Ar  3.6628465 18.2908076  3.1972528
Ar  5.8299931 22.4888453  3.1341783
Ar  0.2190090 19.6982793  4.1206314
Kr  0.5724178 17.1409224  7.1951842
Ar 20.9990510 16.2594260  9.1493870
Ar  4.5072907 20.5943578  5.3826711
Ar 21.4941738 22.6425195  7.7839924
Ar 22.4433042 18.4426216 11.1366579
Ar  1.8107872 15.6998294 15.0499686
Ar  2.7140528 19.6322801  8.7471244
Ar  2.7970906 17.2163366 22.3561428
Ar 22.2796751 13.6486605 15.9349076
Ar  3.3045772 20.7579248  0.8561794
Ar  3.8493951 22.6141603 16.5933473
Kr  0.4592491 19.6654109 22.3558248
Ar  5.1219339 18.8083799 20.6486611
Ar  8.7687786  2.3729024  0.5200330
Ar  8.0484862  2.8541422 18.9705783
Ar  6.4384252  5.1931791  0.5363199
Ar  4.9877418  0.6505821  7.2348257
Ar 12.9514428  0.0677358  7.8720679
Ar  7.2073551  3.8279170  4.3068167
Ar  5.3069587  4.0290742  9.0590079
Ar  7.3413973  2.6894847 12.4597018
Ar  7.8910421 19.2402265 12.8365373
Ar  9.9790242 21.8470118  7.5392261
Ar  4.2847830  2.3856790 14.3148156
Ar  3.6230377  3.4244796 21.0415136
Kr  8.7472367 22.3659297 19.7592129
Ar  7.0689253  1.2914607 16.1303275
Ar  5.0962901  6.3596811 20.7653973
Kr  5.3587630  9.0523300 22.2753598
Ar  9.9380049  5.4154695 22.5672483
Ar  8.8524760  8.9907558 22.3302525
Ar  5.8039692  9.0895683  3.1145949
Ar  5.7933972  6.5767423  6.3317786
Ar  7.8038604 22.8749426 10.4080038
Ar  8.5335462  6.8716986  4.1931586
Ar  7.4072726  6.4314007 10.8844241
Ar 11.4442434  5.1943958 10.0030249
Ar 10.2780120 21.7945127 13.9253573
Ar  8.5957669  4.0194002 15.3187717
Ar  8.0827932  7.7824453 15.4117580
Ar  5.6224667  4.7201592 17.6870204
Ar 10.9683094  4.4496160  3.2716368
Ar  9.9295065  5.9407756 17.7384768
Ar  7.2023335  7.9602580 18.8206270
Ar  7.6900094 13.0479795  1.7111640
Ar 11.7682059 14.2557507  1.8187455
Ar  9.4370420 14.5371022 21.7298214
Ar  5.2639989 12.2099561  4.7775740
Ar  9.2823248 13.1017553  5.6322716
Ar 11.6713852 11.0883923  7.5481091
Ar  8.3933287 16.2353754  1.5380172
Ar  3.9265099 14.7463347  8.6579001
Kr  8.8887254  9.5856467 10.0991002
Ar  9.7793993  9.7679669 13.3080942
Ar  8.0787386 12.7275218  9.3819026
Ar  3.0016795 12.2744747 13.8614417
Ar  6.0467396 10.9764285 16.0494685
Ar  9.1350271 10.6491678 18.0638735
Ar  8.1521859 13.1952566 13.8822957
Ar  2.7440072 12.3840033 18.3701094
Ar  4.5944733 14.4516647  1.4997606
Ar 11.6529363 17.8018852 22.4441773
Ar  9.7833946 21.2909309 22.6595896
Ar  6.5336946 19.2360707  1.0251430
Ar  6.8251052 15.8124047  4.9627042
Ar  8.0804736 15.9110823  8.2131284
Ar  8.0338676 18.9866691  5.2521223
Ar  5.3107377 18.0574840  7.6105985
Ar  6.0599260 15.3016712 11.7713874
Ar  5.5685223 17.2253068 14.4033887
Ar  7.0068653 19.6615150  9.7473738
Ar  2.3230968 19.7164205 12.5960823
Ar  6.9708974 11.9601730 21.3117538
Ar  6.0198625 15.8398465 21.8393600
Ar  6.7110977 20.1385904 17.1111381
Ar  1.8221468 19.3859565 19.1234871
Kr 12.6506602  0.0888514  0.7124909
Ar 15.3196967  2.3848014  2.9891267
Ar 15.8092841  3.4292464 22.6523183
Ar  9.6756193  1.4481851  4.2251546
Ar 10.2659257 20.7887944  2.9446825
Kr 13.6168962  2.4410915 10.2874682
Ar 10.4524998  7.3680684  7.2315921
Ar  9.2634494  3.0397747  7.2179265
Ar 10.6655330  2.1473344 12.9751586
Ar 13.8032459 22.4505984 15.6581741
Ar 16.2041320  0.0383737 12.5622523
Ar 12.5938561 22.3480622 11.6852986
Ar 10.8110350  0.8930095 17.2852198
Ar 13.7646950 22.0515979 19.0461369
Ar 14.3686985  3.4339978 14.4301618
Ar 10.9422683  1.6188385 20.9687986
Ar 13.1590729  5.4112346 21.6034262
Ar 15.3974473  8.5989786  4.6724406
Ar 15.0122894  8.5564597 20.4297472
Ar 12.1537965  8.3980930  1.5549133
Ar 12.7652070  4.9319751  6.1253709
Ar 17.1999256  3.8110847 10.8375600
Ar 16.8347047  5.6285364  3.7910067
Ar 13.4550539 13.4506904  8.9714609
Ar 11.9107235  5.4056739 13.4246097
Ar 15.7487273  6.5961047 12.5757260
Kr 12.9223607  9.2344355 12.2180464
Ar 11.8005162  8.0214376 15.8643485
Ar 13.5914861  3.1698452 18.0042731
Ar 14.3142397  6.4377619 17.8854665
Ar 13.3324621 10.6427088 18.1774582
Ar 11.8473030  8.7470694 20.7390404
Ar 11.2489808 11.7253299 22.7051786
Ar 19.3715741 11.5898458  4.5100577
Ar 15.7206466 13.7503317  1.2580918
Ar 11.4935534 17.3399974  3.3615896
Ar  9.7039975 10.9186442  3.3100561
Ar 12.2635119 15.0196371  5.6227054
Ar 17.9024695 16.8770232  6.9670919
Ar 11.1678439 17.0859722  8.6006588
Ar 11.2479174 12.5064511 11.4966106
Ar 15.2697915 13.0773156 13.2052093
Ar 10.7687325 14.1122314 16.5057549
Ar 13.5907047 16.3576162 14.5358523
Ar 12.5126721 11.4618395 15.2043779
Ar 15.0514688 12.3268805 20.8852986
Ar 12.2465897 13.3969077 19.7415049
Ar  9.1966531 18.5725536 19.6528258
Ar 14.0782207 15.6318030 21.9937436
Ar 18.5217871 17.5977525  3.8912170
Ar 13.6500178 19.7149625  1.2981495
Ar 15.2120574 18.3893952  4.4870270
Kr 14.7876634 16.6407688  7.8381075
Ar 17.5414729 14.3454819 11.0752005
Ar 13.4651933 22.3000166  4.3937977
Ar 12.1998090 19.3640006  6.2484740
Kr  9.5149983 16.2538494 11.1884450
Ar 10.7090452 17.8765344 13.9915795
Ar 13.5558502 19.3678316  9.6170684
Ar 14.2487242 19.3690534 17.1515244
Ar  6.9264540 16.5181521 17.3648349
Ar 11.7963547 16.9109803 17.8448056
Ar 17.2958997 17.2766678 17.9790255
Ar  9.8529370 20.0560771 16.6299553
Ar 16.1831042  0.3226939 22.1536907
Ar 21.5630428  0.2900615  3.8910936
Ar 19.3790349  1.0766522 21.8324898
Ar 16.6400731 22.0297044  2.7541862
Ar 15.9421144  1.2848666  8.3852046
Ar 22.0735693  3.1847333  6.9389008
Ar 18.8854866  3.1000403  4.9436346
Ar 19.0288783  4.9753606  7.9298066
Ar 15.7634322 20.4781300  7.2933739
Ar 21.5203691 22.2236994 12.9637049
Ar 21.6554392  2.2720538 10.2725220
Ar 19.0001368  0.7445942 15.3562760
Ar 19.5089736 19.4782067 17.0544856
Ar 19.7946091 20.6257714 21.0643975
Ar 20.0602234  2.5807858 18.3953249
Ar 16.7677733  0.4261400 18.3701360
Ar 15.5380170  9.7067183  1.2766593
Ar 18.4678100  2.8575288  1.8584565
Ar 18.3504003  8.0101635 21.5070945
Ar 18.3943207  8.3635406  3.0142568
Kr 15.6525771  6.0730362  8.2490731
Ar 21.3244886  4.5582484 15.9727079
Ar 21.1400910  6.2832024  5.1267370
Ar 18.1722139  7.3990850 10.0318290
Ar 18.5426708  4.9948759 13.6349836
Ar  2.2399086  5.8734674 16.0195380
Ar 20.9423285  8.0932875 13.1263471
Ar 15.4654082  9.7681765 15.3611789
Ar 16.7511622  3.7929228 17.4377631
Ar 17.7852338  5.3507566 19.9028579
Ar 18.3267535  8.5353016 14.5708731
Ar 17.4438397  8.6394784 17.8361418
Ar 19.0652593 12.0301026 19.0643706
Ar  0.9285146 13.1652495  3.9708901
Ar 19.4193537 11.1544173  0.0176722
Ar 16.3814604 13.9450565  5.6749307
Ar 13.0779032 11.6966077  4.0765904
Ar 14.8535886  9.5476742  9.1968248
Ar 21.6687339  9.5854963  6.7456089
Ar 13.0350935 16.0303094 11.2365254
Kr 18.1568077 10.8803225  9.5775185
Ar 19.2837627 12.0551463 13.6032710
Ar 20.9814827 12.8502384 10.3330572
Ar 14.4865905 20.0920600 13.2848940
Ar 20.1865668 10.0594137 16.6217935
Ar 22.5629000 14.4783849 19.8888644
Ar  1.0158325  9.4901017 17.4978780
Ar 17.5060099 14.6794105 20.5522345
Ar 16.9617939 17.4078049  0.4596470
Ar 19.3853484 14.1979157  1.9571496
Ar 21.0987288 17.5285729  1.2526477
Ar 19.5296780 20.5554286  2.3373691
Ar 19.1904208 13.8786802  7.4567953
Ar 17.5170332 17.3513742 11.3519665
Ar 20.5352346 18.9082839  6.5513368
Ar 18.7932970 22.7213881  5.7340471
Ar 18.9236140 15.1253097 16.1317375
Ar 18.5401680 19.9831086 13.9303495
Ar 18.6800203  0.0816754 10.1685614
Ar 20.6405857 16.8461017 13.8139139
Ar 15.6376119 13.6589362 16.5302394
Ar 22.4076635 16.9519592 17.6774817
Kr  3.3860789 18.9947961 16.1639836
Ar 15.7496736 19.8779797 20.9224642
