256
22.876152 22.876152 22.876152
Ar  2.7667863 21.7028343 19.8682571
Ar  3.0502613  2.0670700  2.4432950
Ar  1.9152840  5.4051086  1.1186979
Ar  0.3525229  0.4258424  0.7402017
Ar  1.1734934 22.6172880  4.1472900
Ar  8.5227468  0.4750265 14.4057331
Ar  5.0049745 21.4716327  2.8846641
Ar  2.3992335  3.5848404  7.2275313
Ar 15.5968677 18.3988820 11.0839681
Ar  1.6279135  2.4842025 12.8975563
Ar  3.2157417 21.8779057  9.3083307
Ar  3.8267311  5.3253457 11.9983378
Ar 20.2519580  3.0991289 14.1308922
Ar  1.2952867  0.9176926 17.0505671
Ar  0.2560706  4.9884640 16.7833926
Ar 19.8906691  1.9358939 22.2672019
Ar 19.6800475  4.4535483  1.9885020
Ar  2.0965024  5.3886679  4.6127165
Ar  1.0025010  8.0037508  3.2134290
Ar 21.4499673  6.8662009  1.1743045
Ar 22.1880319  3.3096322  3.4357307
Ar  2.6248487  6.8036809  8.6729638
Ar  5.2544678  8.4135055  5.9548890
Ar 20.9769407  5.6359546  8.4993311
Ar  5.4293607  8.2779299  9.2587848
Ar  3.7828285  4.9987191 15.6223154
Ar  5.3657412  7.5154907 13.8321388
Ar  2.6939279  8.7694806 12.3686182
Ar  0.4352353  2.5831682 20.9177424
Ar  2.6782354  6.2166986 20.6532466
Ar  4.8031837 11.4763443 14.4617073
Ar 19.8845016  3.4110113 17.5698102
Ar 21.4491279 13.0986798 18.2017506
Ar  2.1539909 10.4364779  5.2263117
Ar  1.4590652 12.7221097 20.7275136
Ar 22.0212346 13.3262023  5.0128828
Ar 18.8490276  7.7683696  6.9068051
Kr  5.4654833 11.3815775  7.2162348
Ar 21.5365225 15.0577794  2.0686593
Ar  2.6096954 14.0603440  6.6945575
Ar  2.1712523 11.1378530  8.7370540
Ar  2.0095348 13.2569394 12.0419457
Ar  2.1102921 16.7697632 12.0620303
Ar 21.8011944 11.7875446 14.5624284
Kr  1.9812866 11.4997679 16.5346262
Ar  1.4279816  9.2695692 22.4923767
Ar  3.0007223 16.5695477 19.3531177
Ar 19.9632645 19.3846868 18.0774811
Ar 20.2505090 18.8049023  3.4718275
Ar  1.2843087 16.5859431  5.0727043
Ar  9.3898968 20.2799280  5.9523040
Ar 20.1256422 16.7226956  5.9066481
Kr 22.8432422 15.2833104  9.4252020
Ar 22.1296847 15.0884931 12.9436689
Ar  2.9262362 20.5042504  6.3260992
Ar 21.7469133 21.7492903  6.2445727
Ar 22.2168000 19.5700289 11.3181154
Ar 21.9423651 18.5269817 15.0100548
Ar  0.6937412 18.7685265  7.9501262
Ar  2.7292725 17.0479046  0.4614310
Ar  0.1672700 15.4422462 16.2207302
Ar  2.0983190 20.1985328  1.3017452
Ar  5.4771777  0.3148890 18.1226329
Kr 22.4831488 20.2329180 20.8315570
Ar  4.8848125 19.9306377 21.6880258
Ar 11.7093090  4.0009032  1.2266883
Ar  5.2797982  0.4084574 22.5265575
Ar  4.5552987  7.7587045  2.4009949
Ar  3.9902749  0.7406642  6.4756405
Ar 17.8861503  1.1357054  6.7387450
Ar  7.0030196  1.7868071  3.6062630
Ar  6.4436410  4.9069532  8.9036059
Ar  3.7930492  2.1811651  9.8613994
Ar  5.6551595 21.0778180 15.4169241
Ar 11.7036388 20.5971051  9.3462258
Ar  4.2329208  1.1805918 14.9704455
Ar  3.9980108  3.2020890 19.5773795
Kr 13.8126443 21.5180376 20.0675303
Ar  7.8150699  2.3552265 20.1600739
Ar  4.8602926  4.1345429  0.0548158
Kr  5.3531963  7.6818580 22.0995626
Ar  8.0676216  4.4794491  0.7040036
Ar 11.5530729  9.7489750  0.2684892
Ar  8.5273373  9.1659445  1.4256179
Ar  5.9898104  4.5987966  5.3910565
Ar  5.6015596 22.2418989 11.8291607
Ar  9.7746501  4.0006326  4.3454580
Ar  7.5909154  6.9009254 11.5339404
Ar 11.1699116  3.8647593  7.4946783
Ar  8.5101447 20.8170604 11.3288060
Ar  9.8187495  5.9905873 15.2198103
Ar  9.8216228  8.4081549 18.2465603
Ar  6.7593813  3.2791060 16.8111009
Ar  9.0911817  6.7562332  6.0736432
Ar  7.2506480  6.0156042 18.8317984
Ar  6.6020966  9.3296684 16.7868034
Ar  9.1841863 12.6980628  1.6630121
Ar 13.0198049 12.4807948  1.3068366
Ar  8.7320745 10.8341433 21.4539751
Ar  5.0126690 11.2924751  3.2701913
Ar  7.4987208 14.4440831  7.0582293
Ar 11.2600085 12.2379320 11.2738786
Ar  9.1088229 15.4806432 22.2812167
Ar  4.9342461 18.2211712  5.7102918
Kr  9.0490705  9.8454819  8.7468953
Ar 11.9646424  8.6441957 13.1242820
Ar  6.2855211 10.8590252 11.2700313
Ar  4.1889201 14.0336529 17.2525053
Ar  8.5571217 11.9825100 14.0404642
Ar 10.0779304 12.6078235 17.4240362
Ar  8.2012416 15.1168420 15.0019383
Ar  3.5568488 10.1295195 19.4664586
Ar  5.6131209 10.9963041  0.0100866
Ar 12.4976169 16.7310774 21.3240869
Ar 11.1025517 21.7899226 22.6285546
Ar  5.4623212 14.6095071 22.0138296
Ar  7.1826798 14.5503907  3.8478708
Ar  7.5543033 17.7509833  8.6977541
Ar  6.2574284 21.0738179  7.4623577
Ar  3.7780275 17.9760165  9.0253885
Ar  4.6963858 14.2870368 10.6675845
Ar  4.7012380 14.6754274 14.1678135
Ar  5.6934430 18.0686991 12.1291600
Ar  2.0669857 21.2035204 12.6212931
Ar  7.0664538 12.7084425 19.3202501
Ar  8.7041574 15.3998392 18.9361942
Ar  9.0190650 20.8192781 17.1527180
Ar  1.2178060 19.4103734 17.3911472
Kr  7.9860358 20.7061514  1.3305969
Ar 14.4069847  4.2458808  5.8175262
Ar 13.7786931  2.1934522  3.1731701
Ar  9.9466322  1.5860765  1.7712516
Ar  7.3469035 17.8154119  3.0166561
Kr 11.5060897  1.0159045 10.0984058
Ar  8.4273633 11.8039874  5.4119006
Ar  8.7794424  1.0093519  6.9126377
Ar  6.3626519  3.6423826 12.8333157
Ar 15.4888681 21.5502492 11.7304112
Ar 13.8732209  2.9076542 13.0309660
Ar  7.8340425  2.0558412  9.9051474
Ar 11.2966564  2.2684762 15.8207579
Ar 10.7949777  0.8021861 18.7752266
Ar 15.8713569  3.9527868 15.7114592
Ar 10.6214641  4.0912578 20.0930787
Ar 10.8931675  7.0249961  3.0253393
Ar 14.9221371  7.3808233  4.5458787
Ar 18.9431353 12.0559754  2.1245368
Ar 12.2224331 10.2032206  4.0341533
Ar 11.9890609  1.2222052  5.6889175
Ar 18.4738749  4.9522502 12.0950917
Ar 14.7924232  4.7382191  0.6874621
Ar 14.0792328 14.0025051 11.2753121
Ar  9.7258456  3.6083918 12.8099017
Ar 15.1274651 10.8127929 12.4225430
Kr 11.5317752  6.6046127 10.0588951
Ar 13.5531795  6.8854373 17.0965067
Ar 13.8554122  3.5230072 18.4632707
Ar 14.0706996  7.2319828 20.3425906
Ar 12.6779896 10.2779087 19.1866477
Ar  9.7823553  6.9629432 21.8136967
Ar 11.5010160 13.6875270 20.7586062
Ar 19.1360829 10.6321964  5.3264741
Ar 14.6761506 16.6264647  2.7695160
Ar 11.3369908 15.4332526  2.6247686
Ar 12.0252361 13.7103710  5.5639402
Ar 15.2357811 14.6281552  6.2761666
Ar 16.8720007 17.8563825  5.8360620
Ar 10.6058683 14.8677371  8.4539047
Ar 11.2775852 14.5297524 13.9434648
Ar 16.0286263 13.1350798 15.0151866
Ar 10.8862353 16.8470312 16.4851591
Ar 13.3068568 18.0434325 14.1537229
Ar 12.4839780 11.2821598 15.0921748
Ar 16.4506311 10.5380867 19.8970789
Ar 13.6353055 13.5017764 17.8240613
Ar  9.0810809 19.6428018 20.6394575
Ar 15.2912700 14.5244678 22.3027729
Ar 18.0011337 15.5225298  3.1753580
Ar 11.2169459 19.2439500  2.3301473
Ar 12.9904250 20.5761347  5.3372143
Kr 13.4635701 17.8565161  8.0844933
Ar 17.6428651 15.4941799  9.7389995
Ar 14.6960269 21.7983768  0.7097690
Ar  9.7242996 17.0770927  5.4374389
Kr  8.0845451 14.5418484 10.6772512
Ar  9.9721769 18.6162621 13.6566267
Ar 14.4506218 22.4973308  8.5133921
Ar 13.4819269 22.3144920 16.4000997
Ar  7.1386282 18.3020297 17.0610599
Ar 12.3308652 18.6796453 18.7723541
Ar 15.5938585 16.5705513 17.2242966
Ar 11.5526596 22.2286755 13.3255849
Ar 12.9207937  1.4049204 22.1554431
Ar 22.2199199  3.1632981  6.6062268
Ar 20.3546117  0.0499464 18.7479108
Ar 17.4143490 21.8761527 21.3845401
Ar 19.5437938  0.3819097  4.0342070
Ar 17.3594901  4.4495828  7.9987014
Ar 18.2128175  4.6582079  5.0040425
Ar 15.0724754  7.6769545 10.4877765
Ar 18.2362530 20.5582278  5.9577436
Ar 20.7737782  0.1169085 12.4087037
Ar 22.1490099  0.1445674  8.9953992
Ar 21.6736700  2.9213037 10.7767813
Ar 18.0640169  0.8791551 14.5117273
Ar 16.6720724 19.1126945 19.1674274
Ar 19.1351820  6.1898690 14.7752101
Ar 16.9905779  1.7727153 18.6331553
Ar 15.5500289 11.1338532  4.7725135
Ar 16.9930573  1.6092003  1.1538196
Ar 21.8372028  5.3834947 20.8939107
Ar 18.7114219  7.8571638  3.1718003
Kr 13.9541838  3.8878729  9.4701160
Ar 22.3749754  8.3900393 15.8592420
Ar 21.4304206  6.1084039  4.8057515
Ar 18.9222734  7.7947107 10.6480771
Ar 22.1964956  6.3739027 12.6324038
Ar  3.2471718  8.1555276 16.4167629
Ar 22.5267736  8.5773235  9.9332029
Ar 16.0155113  9.6706064 16.0673134
Ar 17.7699879  6.2348791 18.1349125
Ar 18.1400261  4.5798643 21.0844427
Ar 19.1552623  9.4755636 13.6741280
Ar 14.4782413  8.3686615  1.2384089
Ar 18.5225374  8.0106667 21.8240410
Ar  2.7061814 13.6221096  1.4306372
Ar 22.3018918 11.0636835  1.4860910
Ar 18.8033134 13.7873944  7.2957454
Ar 13.7999375 10.9770075  9.0591608
Ar 13.0084324  8.3183314  6.8490584
Ar 22.1292494  8.8242349  6.6681038
Ar 10.7983278 17.0573787 11.0662321
Kr 17.5012892 11.1259093  8.7655690
Ar 19.0727722 12.1984717 11.8407770
Ar 21.3808094 11.5500222  8.7686237
Ar 16.4557797 20.4043807 15.6974720
Ar 19.4002190  9.8383900 17.7808399
Ar 22.5368898 15.8577051 22.1268201
Ar 22.5309206  9.5996027 19.8448415
Ar 19.4763382 11.8101503 21.5547380
Ar 15.7123446 18.3978057 22.6037385
Ar 18.5825973 14.6827849 22.7844644
Ar 19.1335199 18.7525210 22.7618795
Ar 20.2122790 21.8410366  0.9039680
Ar 19.8845409 18.5190387  8.9063936
Ar 16.8237699 15.7190306 12.9128251
Ar 18.7800864 21.4810847  9.5499632
Ar 15.9978915 19.7016662  2.8525050
Ar 19.7431757 13.9323216 15.4790087
Ar 18.8397434 19.4759144 12.4250896
Ar 16.8121866  2.3583829 11.3065376
Ar 18.5904713 17.5887150 15.2376041
Ar 17.1523617 13.6111311 18.9042416
Ar 21.1053613 22.0054756 15.4052507
Kr  3.9035018 17.8679206 15.4074251
Ar 18.9676881 16.3599543 19.2785973
