256
22.876152 22.876152 22.876152
Ar  3.5906867  0.2241049 21.3715208
Ar  3.1590448  3.2982917  1.6089196
Ar  1.2378741  5.6768409  0.3606590
Ar 22.6500978  1.8610826 22.7729353
Ar  2.1203741 22.4277472  3.8309041
Ar  5.5677042 22.1369615 12.6598625
Ar  3.9182319  3.1219361  4.9878959
Ar  2.5275812  2.7954245  7.8915231
Ar 19.4702364 19.5291707 10.0042431
Ar  1.1986253  1.4773501 12.4011555
Ar  2.9718701 22.8734993 10.2488858
Ar  2.4814978  4.6186192 11.4282754
Ar 22.8264907 21.1364521 15.8779635
Ar  0.5001715  0.4467650 19.2715121
Ar  0.9966939  2.1884158 16.3453936
Ar 20.5503478  4.4933484 21.5394376
Ar 20.7110916  6.1632171  1.4797092
Ar  2.9884730  6.4120234  3.0764918
Ar  2.2477158  9.4753326  1.2935359
Ar 22.6606390  9.7091067  3.6641433
Ar  0.4718647  2.9916951  3.6659038
Ar  1.5534654  6.0730430  7.2677592
Ar  7.6399552  9.8342884  6.4161779
Ar 21.7239034  5.6843993  9.5678057
Ar  4.1078824  7.3576413  9.4646136
Ar  4.9247130  5.5821891 13.9191328
Ar  5.9543629 10.0798897 12.3583551
Ar  1.3690036  7.3708795 12.5998771
Ar  0.9300511  4.6005519 19.2039687
Ar  2.4722701  9.4005990 20.4569185
Ar  3.6336166  9.2190337 15.3461745
Ar 21.1480467  7.4254512 19.0446503
Ar 22.3489721 11.0925146 20.4747423
Ar  2.5807369  8.9726079  5.8746684
Ar 22.7219808 12.6773497  0.6684425
Ar 21.3720076 15.8239808  4.5578265
Ar 17.6958572  8.3902343  6.9214856
Kr  4.7285610 10.9434437  8.1441111
Ar  3.4894554 15.3158239  5.1874418
Ar  1.3019173 12.5506813  7.3594026
Ar  0.2263076  9.5343846  9.8831779
Ar  2.1433526 12.5407271 10.5007226
Ar  2.7985381 16.2180043 11.5752426
Ar 22.5467776 13.8730694 12.7994471
Kr  0.0356673 10.8732850 14.5329757
Ar  2.7421796 12.4699776 21.6696979
Ar  3.7453148 15.8500512 19.0270980
Ar 20.1139999 16.9606401 21.0543136
Ar  1.4503855 16.1485485  2.0497754
Ar  3.6628465 18.2908076  3.1972528
Ar  5.8299931 22.4888453  3.1341783
Ar  0.2190090 19.6982793  4.1206314
Kr  0.5724178 17.1409224  7.1951842
Ar 20.9990510 16.2594260  9.1493870
Ar  4.5072907 20.5943578  5.3826711
Ar 21.4941738 22.6425195  7.7839924
Ar 22.4433042 18.4426216 11.1366579
Ar  1.8107872 15.6998294 15.0499686
Ar  2.7140528 19.6322801  8.7471244
Ar  2.7970906 17.2163366 22.3561428
Ar 22.2796751 13.6486605 15.9349076
Ar  3.3045772 20.7579248  0.8561794
Ar  3.8493951 22.6141603 16.5933473
Kr  0.4592491 19.6654109 22.3558248
Ar  5.1219339 18.8083799 20.6486611
Ar  8.7687786  2.3729024  0.5200330
Ar  8.0484862  2.8541422 18.9705783
Ar  6.4384252  5.1931791  0.5363199
Ar  4.9877418  0.6505821  7.2348257
Ar 12.9514428  0.0677358  7.8720679
Ar  7.2073551  3.8279170  4.3068167
Ar  5.3069587  4.0290742  9.0590079
Ar  7.3413973  2.6894847 12.4597018
Ar  7.8910421 19.2402265 12.8365373
Ar  9.9790242 21.8470118  7.5392261
Ar  4.2847830  2.3856790 14.3148156
Ar  3.6230377  3.4244796 21.0415136
Kr  8.7472367 22.3659297 19.7592129
Ar  7.0689253  1.2914607 16.1303275
Ar  5.0962901  6.3596811 20.7653973
Kr  5.3587630  9.0523300 22.2753598
Ar  9.9380049  5.4154695 22.5672483
Ar  8.8524760  8.9907558 22.3302525
Ar  5.8039692  9.0895683  3.1145949
Ar  5.7933972  6.5767423  6.3317786
Ar  7.8038604 22.8749426 10.4080038
Ar  8.5335462  6.8716986  4.1931586
Ar  7.4072726  6.4314007 10.8844241
Ar 11.4442434  5.1943958 10.0030249
Ar 10.2780120 21.7945127 13.9253573
Ar  8.5957669  4.0194002 15.3187717
Ar  8.0827932  7.7824453 15.4117580
Ar  5.6224667  4.7201592 17.6870204
Ar 10.9683094  4.4496160  3.2716368
Ar  9.9295065  5.9407756 17.7384768
Ar  7.2023335  7.9602580 18.8206270
Ar  7.6900094 13.0479795  1.7111640
Ar 11.7682059 14.2557507  1.8187455
Ar  9.4370420 14.5371022 21.7298214
Ar  5.2639989 12.2099561  4.7775740
Ar  9.2823248 13.1017553  5.6322716
Ar 11.6713852 11.0883923  7.5481091
Ar  8.3933287 16.2353754  1.5380172
Ar  3.9265099 14.7463347  8.6579001
Kr  8.8887254  9.5856467 10.0991002
Ar  9.7793993  9.7679669 13.3080942
Ar  8.0787386 12.7275218  9.3819026
Ar  3.0016795 12.2744747 13.8614417
Ar  6.0467396 10.9764285 16.0494685
Ar  9.1350271 10.6491678 18.0638735
Ar  8.1521859 13.1952566 13.8822957
Ar  2.7440072 12.3840033 18.3701094
Ar  4.5944733 14.4516647  1.4997606
Ar 11.6529363 17.8018852 22.4441773
Ar  9.7833946 21.2909309 22.6595896
Ar  6.5336946 19.2360707  1.0251430
Ar  6.8251052 15.8124047  4.9627042
Ar  8.0804736 15.9110823  8.2131284
Ar  8.0338676 18.9866691  5.2521223
Ar  5.3107377 18.0574840  7.6105985
Ar  6.0599260 15.3016712 11.7713874
Ar  5.5685223 17.2253068 14.4033887
Ar  7.0068653 19.6615150  9.7473738
Ar  2.3230968 19.7164205 12.5960823
Ar  6.9708974 11.9601730 21.3117538
Ar  6.0198625 15.8398465 21.8393600
Ar  6.7110977 20.1385904 17.1111381
Ar  1.8221468 19.3859565 19.1234871
Kr 12.6506602  0.0888514  0.7124909
Ar 15.3196967  2.3848014  2.9891267
Ar 15.8092841  3.4292464 22.6523183
Ar  9.6756193  1.4481851  4.2251546
Ar 10.2659257 20.7887944  2.9446825
Kr 13.6168962  2.4410915 10.2874682
Ar 10.4524998  7.3680684  7.2315921
Ar  9.2634494  3.0397747  7.2179265
Ar 10.6655330  2.1473344 12.9751586
Ar 13.8032459 22.4505984 15.6581741
Ar 16.2041320  0.0383737 12.5622523
Ar 12.5938561 22.3480622 11.6852986
Ar 10.8110350  0.8930095 17.2852198
Ar 13.7646950 22.0515979 19.0461369
Ar 14.3686985  3.4339978 14.4301618
Ar 10.9422683  1.6188385 20.9687986
Ar 13.1590729  5.4112346 21.6034262
Ar 15.3974473  8.5989786  4.6724406
Ar 15.0122894  8.5564597 20.4297472
Ar 12.1537965  8.3980930  1.5549133
Ar 12.7652070  4.9319751  6.1253709
Ar 17.1999256  3.8110847 10.8375600
Ar 16.8347047  5.6285364  3.7910067
Ar 13.4550539 13.4506904  8.9714609
Ar 11.9107235  5.4056739 13.4246097
Ar 15.7487273  6.5961047 12.5757260
Kr 12.9223607  9.2344355 12.2180464
Ar 11.8005162  8.0214376 15.8643485
Ar 13.5914861  3.1698452 18.0042731
Ar 14.3142397  6.4377619 17.8854665
Ar 13.3324621 10.6427088 18.1774582
Ar 11.8473030  8.7470694 20.7390404
Ar 11.2489808 11.7253299 22.7051786
Ar 19.3715741 11.5898458  4.5100577
Ar 15.7206466 13.7503317  1.2580918
Ar 11.4935534 17.3399974  3.3615896
Ar  9.7039975 10.9186442  3.3100561
Ar 12.2635119 15.0196371  5.6227054
Ar 17.9024695 16.8770232  6.9670919
Ar 11.1678439 17.0859722  8.6006588
Ar 11.2479174 12.5064511 11.4966106
Ar 15.2697915 13.0773156 13.2052093
Ar 10.7687325 14.1122314 16.5057549
Ar 13.5907047 16.3576162 14.5358523
Ar 12.5126721 11.4618395 15.2043779
Ar 15.0514688 12.3268805 20.8852986
Ar 12.2465897 13.3969077 19.7415049
Ar  9.1966531 18.5725536 19.6528258
Ar 14.0782207 15.6318030 21.9937436
Ar 18.5217871 17.5977525  3.8912170
Ar 13.6500178 19.7149625  1.2981495
Ar 15.2120574 18.3893952  4.4870270
Kr 14.7876634 16.6407688  7.8381075
Ar 17.5414729 14.3454819 11.0752005
Ar 13.4651933 22.3000166  4.3937977
Ar 12.1998090 19.3640006  6.2484740
Kr  9.5149983 16.2538494 11.1884450
Ar 10.7090452 17.8765344 13.9915795
Ar 13.5558502 19.3678316  9.6170684
Ar 14.2487242 19.3690534 17.1515244
Ar  6.9264540 16.5181521 17.3648349
Ar 11.7963547 16.9109803 17.8448056
Ar 17.2958997 17.2766678 17.9790255
Ar  9.8529370 20.0560771 16.6299553
Ar 16.1831042  0.3226939 22.1536907
Ar 21.5630428  0.2900615  3.8910936
Ar 19.3790349  1.0766522 21.8324898
Ar 16.6400731 22.0297044  2.7541862
Ar 15.9421144  1.2848666  8.3852046
Ar 22.0735693  3.1847333  6.9389008
Ar 18.8854866  3.1000403  4.9436346
Ar 19.0288783  4.9753606  7.9298066
Ar 15.7634322 20.4781300  7.2933739
Ar 21.5203691 22.2236994 12.9637049
Ar 21.6554392  2.2720538 10.2725220
Ar 19.0001368  0.7445942 15.3562760
Ar 19.5089736 19.4782067 17.0544856
Ar 19.7946091 20.6257714 21.0643975
Ar 20.0602234  2.5807858 18.3953249
Ar 16.7677733  0.4261400 18.3701360
Ar 15.5380170  9.7067183  1.2766593
Ar 18.4678100  2.8575288  1.8584565
Ar 18.3504003  8.0101635 21.5070945
Ar 18.3943207  8.3635406  3.0142568
Kr 15.6525771  6.0730362  8.2490731
Ar 21.3244886  4.5582484 15.9727079
Ar 21.1400910  6.2832024  5.1267370
Ar 18.1722139  7.3990850 10.0318290
Ar 18.5426708  4.9948759 13.6349836
Ar  2.2399086  5.8734674 16.0195380
Ar 20.9423285  8.0932875 13.1263471
Ar 15.4654082  9.7681765 15.3611789
Ar 16.7511622  3.7929228 17.4377631
Ar 17.7852338  5.3507566 19.9028579
Ar 18.3267535  8.5353016 14.5708731
Ar 17.4438397  8.6394784 17.8361418
Ar 19.0652593 12.0301026 19.0643706
Ar  0.9285146 13.1652495  3.9708901
Ar 19.4193537 11.1544173  0.0176722
Ar 16.3814604 13.9450565  5.6749307
Ar 13.0779032 11.6966077  4.0765904
Ar 14.8535886  9.5476742  9.1968248
Ar 21.6687339  9.5854963  6.7456089
Ar 13.0350935 16.0303094 11.2365254
Kr 18.1568077 10.8803225  9.5775185
Ar 19.2837627 12.0551463 13.6032710
Ar 20.9814827 12.8502384 10.3330572
Ar 14.4865905 20.0920600 13.2848940
Ar 20.1865668 10.0594137 16.6217935
Ar 22.5629000 14.4783849 19.8888644
Ar  1.0158325  9.4901017 17.4978780
Ar 17.5060099 14.6794105 20.5522345
Ar 16.9617939 17.4078049  0.4596470
Ar 19.3853484 14.1979157  1.9571496
Ar 21.0987288 17.5285729  1.2526477
Ar 19.5296780 20.5554286  2.3373691
Ar 19.1904208 13.8786802  7.4567953
Ar 17.5170332 17.3513742 11.3519665
Ar 20.5352346 18.9082839  6.5513368
Ar 18.7932970 22.7213881  5.7340471
Ar 18.9236140 15.1253097 16.1317375
Ar 18.5401680 19.9831086 13.9303495
Ar 18.6800203  0.0816754 10.1685614
Ar 20.6405857 16.8461017 13.8139139
Ar 15.6376119 13.6589362 16.5302394
Ar 22.4076635 16.9519592 17.6774817
Kr  3.3860789 18.9947961 16.1639836
Ar 15.7496736 19.8779797 20.9224642
256
22.876152 22.876152 22.876152
Ar  3.3234600  0.2262591 21.7734175
Ar  3.0999895  3.0181809  1.5749470
Ar  1.4224933  5.9928886  0.1132803
Ar 22.6906944  2.1128163 22.7995028
Ar  2.1452484 22.1891224  3.7239045
Ar  5.3670886 22.0192131 12.9410018
Ar  3.7029699  3.0801704  4.9661416
Ar  2.2892736  2.4206074  8.0319076
Ar 19.3863626 19.6891646 10.0670245
Ar  0.9735549  1.4777297 13.1444573
Ar  3.2818567  0.4129448 10.5881304
Ar  2.7486692  4.2260564 11.9327689
Ar  0.3583232 20.7566282 15.6740804
Ar  0.4383490  0.4428408 19.3983077
Ar  1.1451892  2.0077514 16.3156934
Ar 20.9294950  4.6780634 21.5888758
Ar 20.6820132  6.3280946  1.9565820
Ar  2.5472573  6.0075293  3.4067143
Ar  2.6225133  9.3328242  1.6537455
Ar 22.4739827  9.5751591  3.1644967
Ar  0.4236672  3.2869160  3.5199129
Ar  1.8392088  5.9561808  7.4829223
Ar  8.0585978  9.5397757  6.2116217
Ar 21.9462513  5.7645831  9.7065762
Ar  4.1874454  7.2927179  9.3280132
Ar  5.4155127  5.6907490 13.9815651
Ar  5.9754900 10.3270366 12.1200321
Ar  1.4703803  7.4723063 12.4517541
Ar  0.8057004  4.6013857 19.5056378
Ar  2.6147394  8.9921663 20.4859300
Ar  3.5396938  9.0536692 15.5068242
Ar 21.2273337  7.4631015 18.7965927
Ar 22.3085273 10.7182789 20.1348315
Ar  2.4871236  9.3696986  6.1692168
Ar 22.5422512 12.7296535  0.0266167
Ar 20.9715903 16.0539515  4.8616058
Ar 17.6504551  8.6256045  6.8687521
Kr  4.8465284 10.8100324  8.0167945
Ar  3.4824277 15.3044791  4.9295174
Ar  1.2869216 12.3584495  7.3629480
Ar  0.1541985  9.6230217  9.7004090
Ar  1.9049711 12.1792709 10.6236134
Ar  2.8375375 16.3000407 11.2624394
Ar 22.4805501 13.8412056 12.4062421
Kr 22.7866839 10.9027835 14.4045541
Ar  2.8759593 12.1686926 21.6587065
Ar  3.7793057 15.6455996 18.6902435
Ar 20.1547362 17.0303731 21.0554071
Ar  1.2586046 15.6581138  2.1831163
Ar  3.7689534 18.2617196  3.1332992
Ar  5.5856714 22.5562938  2.9630927
Ar  0.0359662 19.5081260  4.1328851
Kr  0.7021461 17.1641440  7.2672985
Ar 20.7994228 16.7183872  9.2757473
Ar  4.7197376 20.8509848  5.8718239
Ar 21.9264855 22.8227358  8.2156295
Ar 22.7585171 18.7520700 11.3304078
Ar  2.2862831 15.7271260 15.0829050
Ar  2.6434823 19.6713823  9.0901665
Ar  2.8756823 16.8507862 22.2594068
Ar 22.2730140 14.1228982 16.0824089
Ar  3.4443171 20.4812764  0.9180075
Ar  3.6470093 22.3776893 16.6442181
Kr  0.2511000 19.7545406 22.0769770
Ar  4.8022120 19.2442508 20.9141188
Ar  8.7644977  2.0353451  1.2091459
Ar  8.2654848  2.6096571 18.9859834
Ar  6.1984583  5.3254622  0.5558676
Ar  5.5816383  0.6505044  7.2257227
Ar 13.0057198 22.7213452  7.7816385
Ar  7.0124682  3.9641538  4.3737247
Ar  5.5363056  3.9547826  9.0404205
Ar  7.0936035  2.5888046 12.2401041
Ar  7.9686982 19.5494000 12.7751269
Ar  9.6804324 21.3173892  7.7771781
Ar  4.0765821  2.2653584 14.2568450
Ar  3.5421124  3.3895647 21.3303335
Kr  8.6445186 22.0621780 19.5493730
Ar  7.0629583  1.1617880 16.3630656
Ar  4.4284981  6.1999567 20.4322833
Kr  5.8025155  9.1732212 22.4250511
Ar  9.6602324  5.6045607 22.7802513
Ar  8.9732951  8.9009570 22.1901504
Ar  5.6960439  9.2593734  3.3356290
Ar  5.6297944  6.5822719  6.3819312
Ar  7.7345512  0.0121633  9.9895703
Ar  8.2487378  7.2314577  3.8467731
Ar  7.3062325  6.6334176 10.8638769
Ar 11.4705951  5.4886851 10.0235904
Ar 10.6473964 21.6915718 14.0674045
Ar  8.7255862  4.2067542 15.1800630
Ar  8.3354585  8.0497805 15.3622688
Ar  5.6170655  4.6781442 17.6915723
Ar 10.8970576  4.4360513  3.1662190
Ar  9.9164056  5.8543543 17.8765041
Ar  6.9817386  8.0747124 19.2524910
Ar  7.9528058 12.9172971  1.1719095
Ar 11.5812042 14.0049316  2.3939066
Ar  9.7907599 14.7833357 21.4979715
Ar  5.3767570 12.2888716  4.7901969
Ar  9.0401264 13.2698207  5.6940846
Ar 11.1524541 11.3246318  7.2750348
Ar  8.1387284 16.4221753  1.4851568
Ar  3.9357677 14.4070399  8.8377660
Kr  8.8966025  9.4452666  9.9463513
Ar  9.9204169  9.6457600 13.1842222
Ar  8.1942377 12.6916786  9.4018118
Ar  3.3727362 11.9591320 13.4469651
Ar  6.3543005 11.2115243 15.9889891
Ar  9.4184987 10.8601678 18.1447594
Ar  8.2668055 13.0211881 13.9963557
Ar  3.0009002 12.4758687 18.0228914
Ar  4.6467724 14.1753994  1.7057745
Ar 11.1691113 17.4456635 22.2749812
Ar  9.7084335 21.3625648 22.5407052
Ar  6.4175925 19.0588781  0.9284163
Ar  7.2861948 15.7959556  4.7516373
Ar  7.7517352 15.5089075  8.1523746
Ar  8.0381089 19.0590363  5.6221052
Ar  5.4218978 17.5330033  7.2998391
Ar  5.9207240 14.8340791 11.7802390
Ar  5.3492263 17.2597635 14.1218760
Ar  7.0444083 19.8294303  9.3211299
Ar  2.6258442 19.6837460 12.6279858
Ar  6.7969093 12.1186016 21.1268405
Ar  6.2469340 15.7806455 21.7504004
Ar  6.4857987 20.4513844 17.4265251
Ar  1.8955125 19.2904959 18.9837368
Kr 12.4377845  0.2457534  0.7927807
Ar 15.3446166  2.7750923  3.1555394
Ar 15.4061816  3.5891717 22.7212731
Ar  9.9670084  1.3339033  4.0047013
Ar 10.0772883 20.9895408  2.7397810
Kr 13.4504206  2.6593851 10.4721196
Ar 10.4705769  7.4548636  7.7281968
Ar  9.4647829  3.0954823  6.9613730
Ar 10.6973006  2.2748672 12.9599945
Ar 13.9416166 22.6788315 15.5164526
Ar 16.4976381 22.8321155 12.9182308
Ar 12.5103651 22.1586212 11.1528806
Ar 11.0290025  1.2984794 17.2872859
Ar 13.5253911 22.0623524 19.2965543
Ar 14.6779835  3.8911505 14.5605484
Ar 10.6462695  1.7347222 21.2868089
Ar 13.0968708  5.4531347 21.3907646
Ar 15.0200203  8.4477927  4.5247321
Ar 15.4147826  8.6291197 20.6078533
Ar 12.2602681  8.2057959  1.2698615
Ar 12.4890475  5.0148180  6.0270197
Ar 17.1403380  3.9003493 10.7106041
Ar 17.2055226  5.5783166  3.3955389
Ar 13.8146842 13.4455160  8.9425219
Ar 11.6436922  6.0098765 13.4674606
Ar 15.4428919  6.4036437 12.6684980
Kr 13.2345998  9.2407741 12.4140841
Ar 11.8724331  8.1604003 16.0955715
Ar 13.5520317  2.9383995 18.3567505
Ar 14.0919357  6.4489221 17.8876662
Ar 13.5878524 10.2547729 18.1442192
Ar 11.6870006  8.4028652 20.6262802
Ar 11.4303880 11.5817610 22.5808351
Ar 19.8688974 12.0974161  4.2583073
Ar 16.0625775 13.9769035  1.5304933
Ar 11.2380717 17.8674211  3.3126080
Ar  9.7382591 11.0262649  3.1465310
Ar 12.3993315 14.9597473  5.5741640
Ar 18.1966546 16.6826153  7.3014563
Ar 11.2421016 17.1088070  8.3799665
Ar 11.2333053 12.1851719 11.7362707
Ar 15.5136462 13.1515994 13.2402428
Ar 10.9915071 13.9399445 16.8134843
Ar 13.7255570 16.1005344 14.6553239
Ar 12.1987249 11.1847428 15.0825124
Ar 15.0642989 12.1896766 21.2328862
Ar 12.4370986 13.7953448 19.6077142
Ar  8.7613559 18.6099088 19.8250504
Ar 14.1888695 15.4390223 22.0659314
Ar 18.4059616 17.7909558  3.5527947
Ar 13.5989704 19.4086223  1.2054491
Ar 15.2783570 18.8586190  4.2972971
Kr 14.6872058 16.7177515  7.7149745
Ar 17.8551366 14.1622477 10.8908645
Ar 13.2539793 22.2531733  4.3453774
Ar 12.1209609 19.4670679  6.4554835
Kr  9.3194708 16.2468216 11.1796021
Ar 10.5555644 17.3750968 13.9788673
Ar 13.2108231 19.3204100  9.8845002
Ar 14.2129021 19.5731005 16.9062177
Ar  7.0579394 16.6111045 17.4638416
Ar 11.5256544 17.1891547 17.4875660
Ar 16.7956270 17.3690889 18.0255540
Ar  9.8969687 19.9384575 16.9190989
Ar 15.9451245  0.2483588 22.1205077
Ar 21.5588225  0.3759305  3.9364348
Ar 19.2240259  0.9989787 21.5962660
Ar 16.2036983 22.1716968  2.5183196
Ar 16.0959435  1.2247367  8.2783804
Ar 22.3761924  3.2513080  6.8776416
Ar 18.6948683  3.0307835  5.0973190
Ar 19.0348870  4.9077707  8.0138493
Ar 15.8813015 20.3479500  7.2632219
Ar 21.6260101 21.9356560 12.9617770
Ar 21.6631599  2.3582625 10.6155082
Ar 19.0823683  0.5583682 15.1910316
Ar 19.7933467 19.7369067 17.0438336
Ar 19.7154312 20.5318671 21.2537940
Ar 20.4343559  2.8351118 18.4813835
Ar 16.8717649  0.6290840 18.4459962
Ar 15.5817704  9.8978432  0.8776717
Ar 18.3024519  2.5910864  1.5366160
Ar 18.7875321  8.2387790 21.5389755
Ar 18.4452382  8.6694314  2.9906064
Kr 15.3172452  5.8684390  8.6003282
Ar 20.9492152  4.7963962 15.9322317
Ar 20.7543110  6.2117996  5.1707574
Ar 18.1227887  7.6664770 10.2637491
Ar 18.5381194  4.9806973 13.8631841
Ar  2.1798897  5.8352389 15.8212498
Ar 21.3995147  8.7559362 12.6578666
Ar 15.1808272  9.9339080 15.2239337
Ar 16.6817141  3.7316793 17.1153582
Ar 17.9194547  5.2328105 20.1005119
Ar 17.8426072  8.4823252 14.0987542
Ar 17.7402447  8.5159570 18.2768927
Ar 19.2747657 12.0199790 19.2066002
Ar  0.8553655 12.6994627  3.9977800
Ar 19.2052121 11.2960485  0.0441358
Ar 16.4870193 13.7763951  5.3496778
Ar 12.9474027 11.5894837  4.3108507
Ar 15.2826409  9.9137395  9.3507314
Ar 21.8655593  9.4931418  6.7791945
Ar 13.3715429 16.0811764 11.4378522
Kr 18.2493378 10.9446120  9.7848301
Ar 19.4266152 11.8058883 13.4713794
Ar 20.9420084 12.4950132  9.7578810
Ar 14.4213322 19.9884030 12.9232312
Ar 20.0806989 10.2458822 16.6043683
Ar 22.3339935 14.2566298 20.1113491
Ar  1.2654766  9.6842603 17.6172511
Ar 17.3996088 14.5837327 20.3907559
Ar 16.7182354 17.4124554  0.0111679
Ar 19.2490003 14.5676022  2.1700565
Ar 20.9542166 17.4837563  1.4016906
Ar 19.7099461 20.6795028  2.3889966
Ar 19.5555478 13.5688514  7.3044732
Ar 17.2339075 17.6437589 11.6418984
Ar 20.2935522 19.2736135  6.2260679
Ar 18.8239525 22.7275101  6.0523421
Ar 19.1165637 14.8335618 16.0710499
Ar 18.6738803 19.7289391 13.4930237
Ar 18.4172883  0.3295922 10.3940913
Ar 20.2518966 16.7990563 13.6312507
Ar 15.3524598 13.3356645 16.6114426
Ar 22.3539139 16.9936192 17.8809970
Kr  3.3210057 18.9900362 16.0419936
Ar 16.1209566 20.0145570 20.9834950
256
22.876152 22.876152 22.876152
Ar  3.0020934  0.0151181 22.0153675
Ar  3.2122409  2.5305135  1.7273682
Ar  1.4919711  6.3334617 22.6030863
Ar 22.8614871  2.2038483  0.0238282
Ar  2.1638455 22.1528231  3.6385201
Ar  5.3331292 21.9253861 13.3942931
Ar  3.5495945  2.9623072  5.0234571
Ar  2.3167396  1.9751998  8.3365043
Ar 19.4010998 20.1454199  9.9192927
Ar  0.7467627  1.4760558 13.5253791
Ar  3.6625492  0.7160130 10.9335932
Ar  2.9692761  3.9736127 12.0925744
Ar  0.5231880 20.4993153 15.5943336
Ar  0.3498808  0.3746145 19.6023889
Ar  1.2453995  2.0272488 16.7752305
Ar 21.1956222  4.9989467 21.7305467
Ar 20.7550572  6.4013235  2.0628235
Ar  2.2783758  5.9527852  3.9361982
Ar  2.9465182  9.2130221  1.8473426
Ar 22.1185449  9.3517872  2.6675754
Ar  0.1151233  3.6218737  3.3590788
Ar  1.9858351  5.7781012  7.4866336
Ar  8.3684907  9.4534504  6.1035661
Ar 22.2561252  5.9843500  9.9581634
Ar  4.2690420  7.4370304  9.5186022
Ar  5.9375162  5.8809450 14.0457137
Ar  6.1820675 10.4456075 11.7876648
Ar  1.8847292  7.5682744 12.3131748
Ar  0.7544924  4.6131288 19.6157525
Ar  2.6131288  8.8532642 20.8932983
Ar  3.7112546  8.7209224 15.3468389
Ar 21.3308749  7.4169202 18.5466680
Ar 22.1385640 10.3009919 20.0131670
Ar  2.2775765  9.4592033  6.1333810
Ar 22.3497254 12.6488496  0.0250685
Ar 20.7825334 16.1467570  5.2084353
Ar 17.7489655  8.8652446  6.7180490
Kr  5.1027618 10.7266439  8.0531701
Ar  3.4100269 15.2009473  4.8639265
Ar  1.1615490 12.3441641  7.2682069
Ar  0.2594307  9.3416235  9.6612121
Ar  1.8416862 11.9933308 10.7471625
Ar  2.6343580 16.5580984 11.1433156
Ar 22.5429668 14.2408150 12.3841821
Kr  0.0878839 11.1376067 14.4529595
Ar  3.1273721 12.0532730 21.7479164
Ar  3.8091277 15.7053014 18.4312401
Ar 20.1216495 17.0253338 20.8239273
Ar  0.8641142 15.1718036  2.4083828
Ar  3.9306170 18.0113295  3.3982773
Ar  5.5183009 22.7761150  2.6358998
Ar 22.7968723 19.1870281  4.0293093
Kr  1.0228543 17.1904155  7.2184137
Ar 20.5285650 16.8489430  9.8244403
Ar  4.7524225 20.5283167  6.3025482
Ar 22.3722891 22.8251688  8.5769069
Ar 22.7275276 18.9285493 11.4064508
Ar  2.7731982 15.6442650 15.0380234
Ar  2.6434149 19.7942834  9.3826985
Ar  2.8939734 16.4202188 22.0720808
Ar 22.4217500 14.4058429 16.3151302
Ar  3.3227798 20.3584206  0.9608272
Ar  3.4130598 22.3599178 16.7492631
Kr  0.0182328 19.8587700 21.8762711
Ar  4.6806429 19.8118729 20.7663413
Ar  8.3845769  1.8235479  1.5680558
Ar  8.3980359  2.8167965 19.2112260
Ar  5.9293202  5.4219360  0.7218560
Ar  6.2404134  1.1206819  7.2910780
Ar 12.9917045 22.5477576  7.6291785
Ar  6.8867385  3.9903721  4.3543847
Ar  5.7814536  3.8470114  9.0246106
Ar  6.7871049  2.5897995 12.0789930
Ar  8.0413690 19.8651506 12.7553748
Ar  9.5820709 21.0013490  7.9580880
Ar  4.1226375  2.0238183 14.4708790
Ar  3.4179285  3.2112774 21.3110379
Kr  8.4781773 21.9288138 19.1563064
Ar  6.9077898  0.7908945 16.2356729
Ar  3.9781306  6.0707540 19.9002191
Kr  5.8503435  9.2428072 22.7405952
Ar  9.4355921  5.6775666  0.0794506
Ar  9.3639436  8.9842924 22.2831622
Ar  5.5467639  9.4097477  3.5731336
Ar  5.4732393  6.6088796  6.3024191
Ar  7.7940385  0.3738018  9.8547984
Ar  8.2507567  7.3747144  3.3063749
Ar  7.1553981  6.5328356 10.9876386
Ar 11.4855106  5.6873951 10.2425641
Ar 10.9844350 21.6152379 14.1964971
Ar  8.7993367  4.3967499 14.9689164
Ar  8.2198857  8.0269489 15.7016935
Ar  5.6299155  4.5808407 17.4858151
Ar 10.7963691  4.5635222  2.8441414
Ar  9.9557469  5.7804822 18.2556577
Ar  6.9409155  8.2590441 19.4476962
Ar  8.1781381 12.8801886  0.7707675
Ar 11.2911449 13.9490845  2.7284435
Ar  9.7881956 14.5176099 21.1024897
Ar  5.5408017 12.5118957  4.8179918
Ar  8.8104789 13.3437630  5.7891667
Ar 10.8200310 11.3567928  7.2541065
Ar  8.3267486 16.4677868  1.5382131
Ar  4.1023858 14.0229337  8.6829745
Kr  8.8941984  9.3328796  9.7577368
Ar  9.8168066  9.4644578 13.1133103
Ar  8.2618864 12.5132560  9.6303895
Ar  3.7897325 11.8687530 13.4873837
Ar  6.6059549 11.3927312 16.1291432
Ar  9.7374361 11.0143231 18.2581661
Ar  8.5742165 12.9917438 13.9365309
Ar  3.3109264 12.5249447 17.5677367
Ar  4.6302323 13.8926676  1.8951164
Ar 10.8908713 17.6414059 22.2803896
Ar  9.5769998 21.1307910 22.4356439
Ar  6.4809266 19.1478366  0.9152471
Ar  7.4309265 15.9396926  4.4133861
Ar  7.5589689 15.4236353  7.9145185
Ar  8.1092010 19.1699728  5.8291198
Ar  4.9790153 17.1777099  6.8394333
Ar  5.8942118 14.1726396 11.7195305
Ar  5.5379016 17.1168550 13.5605180
Ar  6.8103428 19.6050869  8.9765501
Ar  3.2124885 19.8012218 12.7479797
Ar  6.6337366 12.4842554 20.4916545
Ar  6.3994764 15.7132753 21.3897792
Ar  5.9402681 20.5457326 17.5832311
Ar  1.8092378 19.2910631 19.1284230
Kr 12.4371048  0.4185132  1.0299450
Ar 15.0056833  3.0003476  3.5995826
Ar 15.1625829  3.8135287 22.7525979
Ar 10.4329540  1.0279551  4.3108728
Ar  9.8240298 21.0890682  3.0673489
Kr 13.3529854  2.8939116 10.6960483
Ar 10.5961685  7.5272701  7.6308883
Ar  9.6334774  3.1950123  6.8628852
Ar 10.7699930  2.3950790 12.9440638
Ar 14.0319013  0.2262572 15.3680590
Ar 16.5215845 22.7887681 13.4368531
Ar 12.2310718 22.3395802 10.7811998
Ar 10.9702433  1.4875502 17.0696165
Ar 13.1715608 22.1641935 19.6527186
Ar 14.6490852  4.0228292 14.6278881
Ar 10.5668750  2.1077187 21.3462539
Ar 12.9076297  5.4502756 21.0870693
Ar 14.5100861  8.2897515  4.3210081
Ar 15.6610344  8.5279263 20.8697888
Ar 12.3596450  7.9981147  1.0567317
Ar 12.3938822  5.1017927  6.0934547
Ar 17.1679012  3.7461024 10.7847679
Ar 17.4839095  5.5187943  2.9918737
Ar 14.1773035 13.3501573  8.9367739
Ar 11.3330735  6.5017377 13.5000848
Ar 15.1438765  6.3764843 12.4809549
Kr 13.6236798  9.1954812 12.4216356
Ar 11.7714035  8.1843495 16.3162706
Ar 13.6606243  2.7870648 18.9216590
Ar 14.0554905  6.4002638 17.9659764
Ar 13.8529501 10.0271266 18.4482544
Ar 11.7579676  8.1765683 20.1150278
Ar 11.6503463 11.4220175 22.4241260
Ar 20.4283799 12.3088943  3.9459196
Ar 16.2299068 13.9816543  1.9063895
Ar 10.9956189 18.1376005  3.3096973
Ar  9.8392307 10.7296479  3.0047194
Ar 12.5229415 14.8953501  5.6232973
Ar 18.2531227 16.6074998  7.4354844
Ar 11.0479368 16.7761211  8.0926446
Ar 11.3309774 12.2925343 11.6972408
Ar 15.6730636 13.1445818 13.1391075
Ar 10.8819085 13.7342324 16.7170550
Ar 14.0179928 15.8410051 15.1745973
Ar 11.7390331 11.4829591 14.8768578
Ar 15.0992584 12.0208885 21.4160580
Ar 12.7570317 14.1052508 19.5420947
Ar  8.2673558 18.4235607 20.2301124
Ar 14.0384503 15.4126856 22.0790120
Ar 18.0480651 17.9294997  3.2540885
Ar 13.6301824 19.1911180  1.0457046
Ar 15.1568166 19.2859509  4.0687250
Kr 14.6247018 16.8266019  7.5941752
Ar 18.2248733 14.2356068 10.6837424
Ar 13.0392068 22.1844850  4.2766038
Ar 12.2731636 19.6796749  6.2852841
Kr  9.0205092 16.1272662 11.1727268
Ar 10.5436121 17.0886366 14.3759542
Ar 12.9791222 19.1048630  9.9436552
Ar 14.1792090 19.6207052 16.6025010
Ar  7.2124465 16.6714243 17.5107597
Ar 11.5419336 17.2953284 17.4119741
Ar 16.3191960 17.4230263 18.1076268
Ar  9.9725498 20.1087707 16.9770009
Ar 15.5545095  0.2162631 22.0230182
Ar 21.5431853  0.4185700  3.9984886
Ar 19.2762020  1.0272999 21.1785863
Ar 15.8745524 22.2404365  2.3636531
Ar 16.2833243  1.2887664  7.9302856
Ar 22.1490949  3.4329043  6.6927993
Ar 18.5845130  3.0130840  5.2757310
Ar 18.9781024  4.8227047  8.0634849
Ar 16.0709930 20.3069741  7.3780190
Ar 21.4685948 21.5642815 12.7529785
Ar 21.5627896  2.5212298 10.9712994
Ar 19.2610086  0.4169739 15.1348645
Ar 20.0986309 20.0122858 17.0754595
Ar 19.5716818 20.3824749 21.4153009
Ar 20.7192168  2.8535265 18.7872981
Ar 17.0121680  0.6767822 18.5746879
Ar 15.6850477 10.0044289  0.9007355
Ar 18.4035275  2.3600141  1.2147395
Ar 19.3740481  8.4739881 21.7595600
Ar 18.5800062  9.3453313  2.9620171
Kr 14.8608067  5.7155230  8.8589901
Ar 21.0095969  5.2366895 15.9144028
Ar 20.4190940  6.1904720  5.4923921
Ar 18.1720328  7.5004215 10.6920240
Ar 18.2760128  4.9151909 13.8643676
Ar  2.0486351  5.6896237 15.6655247
Ar 20.9691728  8.7957546 11.8486955
Ar 15.0825155 10.1281930 15.2642030
Ar 17.0042333  3.7864057 16.8888215
Ar 17.8684297  4.9963833 20.2205752
Ar 17.7075203  8.3575933 13.5698471
Ar 17.9634114  8.2847736 18.4973275
Ar 19.3550535 12.1165930 19.5109408
Ar  0.8122716 12.2280214  3.9358191
Ar 18.9512497 11.6049844  0.1653728
Ar 16.5268794 13.6117622  5.0342984
Ar 13.0519992 11.3794663  4.5643142
Ar 14.9504221 10.0263580  9.3544902
Ar 21.7451010  9.3918422  6.4162103
Ar 13.6746588 16.0815321 11.3315318
Kr 18.3422551 10.9758058  9.9879704
Ar 19.4512298 11.6633034 13.2701394
Ar 21.7648225 12.2323760  9.3967965
Ar 14.4664769 19.7097133 12.8923594
Ar 20.1747952 10.3380230 16.3777290
Ar 22.1229179 14.2441874 19.9293099
Ar  1.0740723  9.6911393 17.4057954
Ar 17.2853007 14.6743596 20.2750855
Ar 16.7489028 17.3432546 22.6915619
Ar 19.2880168 14.9867138  2.2087972
Ar 21.0968697 17.5325728  1.6066863
Ar 19.8985087 20.9252204  2.3390407
Ar 19.6538940 13.4355444  6.7986704
Ar 16.5631111 17.5884425 11.7646506
Ar 19.9953493 19.7333722  6.0465515
Ar 18.7437607 22.5152434  6.4795393
Ar 18.9004609 14.4283817 16.1973757
Ar 18.8384002 19.9459378 13.3647882
Ar 18.6340325  0.5575765 10.4788328
Ar 20.0838517 16.6958452 13.2764585
Ar 15.0672289 13.0506295 16.9390950
Ar 22.2558087 17.2249717 18.0629977
Kr  3.3514633 18.9358248 15.9603205
Ar 16.4109089 20.1105642 20.7806187
256
22.876152 22.876152 22.876152
Ar  2.6296682 22.7762555 22.0165606
Ar  3.2784332  2.1063145  1.9100512
Ar  1.4980533  6.4278956 22.5180497
Ar  0.1712798  2.1793806  0.1128150
Ar  2.1119666 22.2042955  3.6824338
Ar  5.7247328 21.9665096 13.9258707
Ar  3.4255993  2.7435663  5.3294606
Ar  2.3247798  1.7873705  8.3506926
Ar 19.4138098 20.5503950  9.6241411
Ar  0.4956616  1.3450836 13.5993998
Ar  4.1204382  0.7830030 11.4516508
Ar  3.0831658  4.0456085 11.9733235
Ar  0.2070730 20.5251368 15.4492052
Ar  0.1845839  0.1762491 19.8985133
Ar  1.2740003  2.3576946 17.5134660
Ar 21.1353205  5.3812578 21.9190403
Ar 20.8105912  6.2736537  2.0204639
Ar  2.2080458  6.3131676  4.3464869
Ar  2.7103654  9.0803388  1.8656793
Ar 21.9295194  9.2884298  2.1424896
Ar 22.4539900  3.7772193  3.0944029
Ar  2.0774505  5.5412998  7.4946724
Ar  8.3334851  9.4652029  5.9107999
Ar 22.4794580  6.0169996 10.2326807
Ar  4.2658196  7.6727348  9.7784118
Ar  6.1140448  6.0746239 14.1675963
Ar  6.4742792 10.3727646 11.4722439
Ar  2.2976684  7.6678397 12.2648036
Ar  0.8383952  4.6552382 19.4432490
Ar  2.3166377  9.3251786 21.1738772
Ar  4.0629503  8.4521429 15.1336614
Ar 21.4913437  7.2728988 18.4334446
Ar 21.9942267 10.0719582 20.2742478
Ar  2.2216135  9.2258651  5.9130983
Ar 22.2215253 12.4187106  0.3551246
Ar 20.8223599 16.3376754  5.4097792
Ar 17.8575689  9.0868466  6.5698599
Kr  5.4393281 10.5935105  8.1105384
Ar  2.9920854 14.6371377  4.8662905
Ar  1.4085072 12.6322163  6.9343977
Ar  0.7949920  8.7963757  9.1502442
Ar  2.1833969 11.9848871 10.9599579
Ar  2.4413899 16.7197704 11.0268099
Ar 22.6062146 14.7151929 12.3913830
Kr  0.3599486 11.4316656 14.3624088
Ar  3.4252562 12.2280436 21.9005785
Ar  3.8547121 16.0118034 18.3204149
Ar 19.9960888 16.9634409 20.6722161
Ar  0.4349520 14.9009267  2.5090242
Ar  4.1488330 17.9433177  3.5730190
Ar  5.5252313 22.8556995  2.3749795
Ar  0.0468091 18.9560967  4.0339466
Kr  1.3103413 17.1978449  7.1800487
Ar 20.5891013 16.9010004 10.1808293
Ar  4.6442295 20.4291149  6.5463204
Ar 22.6817485 22.6684965  8.9226933
Ar 22.8309342 18.8768471 11.4331990
Ar  3.1285720 15.2821135 14.8743354
Ar  2.6944695 20.0133446  9.4514191
Ar  2.8570901 16.0091019 21.9120180
Ar 22.7007706 14.4694231 16.3699760
Ar  2.9990968 19.8943864  1.2386920
Ar  3.0152718 22.4738140 16.9031398
Kr 22.7226082 19.9745631 21.8626911
Ar  4.7402614 20.3433374 20.6390252
Ar  7.9968468  1.7344561  1.6865104
Ar  8.0657116  3.1200776 19.1455894
Ar  5.5738349  5.5039233  0.9127196
Ar  6.6379340  1.5107647  6.7053451
Ar 13.0865345 22.6915565  7.4730833
Ar  6.8469227  3.9726127  4.2716734
Ar  5.9006484  3.9674449  9.0214892
Ar  6.4983055  2.7745237 12.2164062
Ar  8.2048106 20.0964967 12.6959288
Ar  9.9625487 21.0481571  8.2671547
Ar  4.2411493  1.9556974 14.9140929
Ar  3.3789169  2.9972858 21.1899776
Kr  8.3462816 22.1325425 19.0591731
Ar  6.9626472  0.5591312 16.2153015
Ar  3.8506331  5.8604605 19.2867982
Kr  5.8702674  9.3341068  0.1975872
Ar  9.1605407  5.6414256 22.8409298
Ar  9.4838569  9.1930849 22.4911069
Ar  5.6480260  9.4940717  4.0519193
Ar  5.3353667  6.6846252  6.1661633
Ar  8.1698238  0.5553541 10.1563212
Ar  8.3787983  7.3225719  2.6644198
Ar  7.1942108  6.2979035 11.0996972
Ar 11.3197089  5.9226003 10.4738289
Ar 11.3767658 21.6313547 14.1125641
Ar  8.9325554  4.4837835 14.9120563
Ar  7.9739266  7.9337141 16.2831495
Ar  5.7796950  4.3386733 17.0296473
Ar 10.8185245  4.5830201  2.7267520
Ar  9.9877917  5.6967047 18.6197948
Ar  6.9718369  8.4345250 19.5094759
Ar  8.3104308 12.7986968  0.5215588
Ar 10.8883855 13.9491642  2.7467433
Ar  9.6487886 14.1016614 20.5816095
Ar  5.7228455 12.7568933  5.0207421
Ar  8.7665392 13.1719148  5.6389734
Ar 10.9510251 11.2601188  7.5807089
Ar  8.7798175 16.3326282  1.0998170
Ar  4.2306796 13.8350191  8.4538738
Kr  8.8841819  9.1222479  9.6188114
Ar  9.4974340  9.3707883 12.9435463
Ar  8.3128320 12.7985590  9.8021756
Ar  4.0484978 11.9243700 13.9339879
Ar  6.7363975 11.4434956 16.4129668
Ar 10.0063390 10.9982597 18.4777081
Ar  8.9327692 13.1133166 13.7036717
Ar  3.5686455 12.3898195 17.0724143
Ar  4.6095603 13.6664295  1.8280493
Ar 10.8672295 18.0259069 22.3296609
Ar  9.4661596 20.9213877 22.3778020
Ar  6.6201855 19.4114863  0.9032483
Ar  7.1708418 16.2161599  4.3871984
Ar  7.4357293 15.4472224  7.9350102
Ar  8.0892975 19.0570938  5.6836279
Ar  4.4608670 17.1293400  6.6380210
Ar  5.7998426 13.5493347 11.6717292
Ar  5.8927122 17.0381521 12.9756732
Ar  6.3174444 19.1432431  9.0179046
Ar  3.4028051 19.6870607 12.5793166
Ar  6.4455291 12.6411579 19.6531480
Ar  6.3856779 15.6614875 21.1052302
Ar  5.6248773 20.3396681 17.6193944
Ar  1.8607143 19.3563545 19.0660269
Kr 12.4304788  0.6140305  1.2401011
Ar 14.5881289  3.1329092  4.0690155
Ar 15.1694378  3.8698665  0.0853517
Ar 10.6989289  1.2755572  4.9182897
Ar  9.2995049 21.1331541  3.2778615
Kr 13.4171983  2.9991410 10.9121523
Ar 10.9548126  7.5110913  7.0942931
Ar  9.6418018  3.3669118  6.9748861
Ar 10.7381672  2.4174657 13.0172036
Ar 13.8433055  0.7428451 15.5065997
Ar 16.5814637 22.7115621 13.5603982
Ar 11.7863030 22.6252177 10.7757502
Ar 10.7709920  1.5896004 16.7498461
Ar 12.7004599 22.1925840 19.9390496
Ar 14.2550331  3.8605272 14.7099696
Ar 10.8207048  2.4279081 21.6409111
Ar 12.5823912  5.2124459 20.9469005
Ar 14.0664840  7.9802848  4.1087702
Ar 15.7851143  8.1365701 21.1556731
Ar 12.5056510  7.7692207  0.8860456
Ar 12.5605638  5.0300074  6.0156494
Ar 17.1381668  3.4699868 10.9467423
Ar 17.6735885  5.5723786  2.5692216
Ar 14.5100565 13.3235783  8.9080887
Ar 11.1172243  6.6477090 13.5918528
Ar 15.0799600  6.0513033 12.1073894
Kr 13.7628549  9.3478404 12.3405576
Ar 11.5591541  8.3891607 16.4821495
Ar 13.9560192  2.6348063 19.4861505
Ar 14.2784676  6.2179765 18.0175316
Ar 14.2216039 10.1166565 18.7041676
Ar 11.6393229  8.2841729 19.5630246
Ar 11.9889608 11.4283193 22.2765442
Ar 20.8137950 12.3167980  3.3444738
Ar 15.9722325 13.9001545  1.7801775
Ar 10.9037051 17.9551714  3.3643165
Ar  9.9426906 10.3223833  2.8866950
Ar 12.6594011 14.7263673  5.7060953
Ar 18.0086701 16.6077933  7.4326898
Ar 10.6412792 16.4124222  7.8767082
Ar 11.5131208 12.5943015 11.3149677
Ar 15.8146282 13.1114953 13.0020574
Ar 10.5037549 14.1927169 16.7955484
Ar 14.3099724 15.6781958 15.6379642
Ar 11.7014041 11.4449105 14.6526835
Ar 15.1104165 12.1701389 21.2283431
Ar 13.0296083 14.2436542 19.2370704
Ar  7.8124025 18.3978404 20.6331380
Ar 13.8809266 15.5508849 22.4723768
Ar 17.7269187 18.0861734  3.0478475
Ar 13.6958984 19.0634818  0.7488072
Ar 14.9389786 19.5718264  4.0225735
Kr 14.6551242 16.9791999  7.4928094
Ar 18.4931045 14.6323775 10.5593462
Ar 13.1835090 22.0340335  4.1540500
Ar 12.3856935 19.4539042  6.1020939
Kr  8.7309049 16.0129913 11.1819230
Ar 10.4527483 16.8344316 14.5328278
Ar 12.6793598 18.8757036  9.7649560
Ar 14.0644853 19.7634371 16.2973598
Ar  7.3638473 16.6787849 17.4180827
Ar 11.8548149 17.0417347 17.8293235
Ar 15.9221804 17.3922819 18.2228069
Ar 10.0469384 20.1798591 16.7090982
Ar 15.2446666  0.4607052 21.8404639
Ar 21.5855139  0.5717688  4.1951036
Ar 19.3967375  0.9118087 20.8403893
Ar 15.8036107 22.3454056  2.2598386
Ar 16.1548221  1.5950828  7.6546023
Ar 21.8988863  3.5047077  6.6418155
Ar 18.4758855  2.8831692  5.2809619
Ar 18.8680083  4.7238015  8.3966057
Ar 16.2550065 20.2741385  7.5795538
Ar 21.5010129 21.7384673 12.4987846
Ar 21.4228272  2.7970623 11.2656521
Ar 19.6814077  0.3744961 15.2728499
Ar 20.3110671 20.3105645 17.1460271
Ar 19.4117290 20.3413192 21.6321430
Ar 20.9800720  2.9647694 18.8651377
Ar 17.0434322  0.6252334 18.6114292
Ar 15.7905419  9.9133032  1.5911570
Ar 18.4704018  2.2086552  1.1201538
Ar 19.9540570  8.5380633 22.0568280
Ar 18.6570974  9.9422024  3.0329226
Kr 14.4573597  5.6762458  8.9627584
Ar 21.2383391  5.5503340 15.8274395
Ar 20.1604938  6.3502724  5.6733402
Ar 18.0234120  6.8273677 10.4014857
Ar 17.9506521  4.8371089 13.7459148
Ar  1.8874705  5.4294588 15.5366246
Ar 20.5031439  8.7906020 11.5185218
Ar 15.2585144 10.2403907 15.4646410
Ar 17.5567949  3.8412512 16.9640984
Ar 17.7737016  4.7531581 20.3741905
Ar 17.5904737  8.5540581 13.6946809
Ar 18.1915897  8.0676978 18.4439643
Ar 19.2911542 12.1407468 19.7164603
Ar  1.1627431 11.6040612  3.7758730
Ar 18.6312673 12.0977596  0.3521295
Ar 16.5601762 13.4108277  5.1575982
Ar 13.2502588 11.2496810  4.7905505
Ar 14.5224405  9.9673487  9.0848258
Ar 21.4511746  9.3769443  5.9792207
Ar 13.6074608 15.7653010 11.2374167
Kr 18.4043771 10.8769950 10.0557195
Ar 19.4380546 11.7242463 13.1583122
Ar 21.9476267 12.2511703  9.4721438
Ar 14.3354164 19.7207292 13.1686099
Ar 20.1698335 10.3436769 16.3100057
Ar 21.9993255 14.3079792 19.5540193
Ar  1.0508028  9.4944088 17.1730418
Ar 17.0987259 14.8486130 20.1803417
Ar 16.9809287 17.2470584 22.6692881
Ar 19.4411977 15.1337659  2.1410351
Ar 21.4407530 17.7983073  1.4566311
Ar 19.9683130 21.1018626  2.1632862
Ar 19.5770118 13.2905374  6.6864064
Ar 16.4479664 17.3674820 11.7048004
Ar 19.8672554 19.6439171  5.8489712
Ar 18.7158759 22.6767381  6.9044516
Ar 18.5254527 14.0030000 16.3483976
Ar 18.6182905 20.0754170 13.4825384
Ar 18.9193459  0.7739807 10.5954149
Ar 19.8769374 16.5079533 13.2455158
Ar 14.9344086 12.8780187 17.3373727
Ar 22.1051445 17.5925903 18.1700792
Kr  3.5440850 18.6086745 15.9458512
Ar 16.3615667 20.1486430 20.2989639
256
22.876152 22.876152 22.876152
Ar  2.4122131 22.4414551 22.2399888
Ar  3.0788100  2.1318492  1.9574705
Ar  1.5184961  6.2675264 22.6681664
Ar  0.2259651  2.1689641  0.0840182
Ar  2.0160209 22.2422331  3.8581496
Ar  5.8625381 21.5497341 14.0385359
Ar  3.3637241  2.6101359  5.5105084
Ar  2.4700821  1.7388577  8.5185469
Ar 19.5084439 20.5640950  9.3411842
Ar  0.5429110  1.3368137 13.9211491
Ar  4.2692199  0.5653523 11.7328288
Ar  3.1325242  4.2474338 11.8308943
Ar  0.1063202 20.5625314 15.1772998
Ar 22.6604721 22.8261722 20.0045641
Ar  1.4049526  2.4212116 17.6728407
Ar 21.0285666  5.4035885 21.6422217
Ar 20.7162968  6.4092231  2.1997246
Ar  2.1102032  6.3882990  4.2429300
Ar  2.4516951  8.7588997  1.7920237
Ar 22.0680429  9.4120586  1.7071805
Ar 22.2093740  3.6176161  3.0356151
Ar  2.1615853  5.2393272  7.7959089
Ar  8.4084134  9.4752885  5.8328316
Ar 22.6149210  5.8032297 10.5460025
Ar  4.4373889  7.7956099  9.7398827
Ar  6.0916112  6.1106617 14.1084697
Ar  6.3539778 10.1145613 11.5564606
Ar  2.3879165  7.7708402 12.5093924
Ar  0.7940142  5.2162581 19.7040502
Ar  2.1693628  9.6054925 21.2108859
Ar  4.2786357  8.5207058 15.1691213
Ar 21.6771318  7.2592414 18.6702520
Ar 22.0837250 10.2494842 20.3167456
Ar  2.3897919  9.1549499  5.8608916
Ar 22.3005112 12.2098864  0.1918149
Ar 21.0162766 16.4197629  5.4789351
Ar 17.8847427  9.3223126  6.4724134
Kr  5.7880990 10.4325696  8.0630646
Ar  2.6380912 14.4076519  4.3921316
Ar  1.4544429 12.5826193  6.9933849
Ar  1.3771933  8.5760937  8.6194075
Ar  2.6641174 11.9490381 11.1561734
Ar  2.4843576 16.5978303 10.8188443
Ar 22.7604666 15.0778831 12.3888269
Kr  0.6178690 11.7411908 14.1528330
Ar  3.7487803 12.6475653 21.8737083
Ar  3.9011060 16.1983400 18.4084892
Ar 19.7834461 16.8897034 20.6815156
Ar  0.0419226 14.8478368  2.5655272
Ar  4.3476946 17.8966368  3.5500161
Ar  5.4747965 22.2948759  2.3240370
Ar  0.4499600 18.9357483  4.2977357
Kr  1.2576203 17.2006766  7.2241229
Ar 20.8709022 17.1757620  9.7457343
Ar  4.4179930 20.7266099  6.4294813
Ar 22.7344380 22.3341209  9.2890215
Ar  0.1707060 18.9499109 11.5880487
Ar  3.4168726 14.8260477 14.5590057
Ar  2.6646085 20.3255239  9.2141324
Ar  2.7388521 15.6730201 21.7956853
Ar  0.1464048 14.5575208 16.1571801
Ar  2.5469096 19.4857788  1.2646904
Ar  2.5832045 22.3105523 17.1196636
Kr 22.7092043 20.1117461 21.8928349
Ar  4.8428108 20.8375049 20.9687594
Ar  8.0897662  1.9278520  1.6409587
Ar  7.6419801  3.1269182 19.2486057
Ar  5.1572859  5.5645827  1.1093868
Ar  6.9929853  1.5818177  6.0749273
Ar 13.2031679  0.0559159  7.4737801
Ar  6.8359355  4.0997085  4.0663101
Ar  5.8559474  4.1272764  8.8889551
Ar  6.5131835  3.2078289 12.6484827
Ar  8.5575279 20.1849870 12.5297196
Ar 10.2391365 21.0170015  8.4641822
Ar  4.0187522  2.1834212 15.1501802
Ar  3.4488596  2.9049402 21.0739352
Kr  8.2932032 22.3739022 19.2787341
Ar  7.3827330  0.8958783 16.4925039
Ar  3.9184984  6.0358862 18.7478031
Kr  5.9097883  9.4493095  0.5098776
Ar  8.8641104  5.4739744 22.2866393
Ar  9.4549459  9.3274519 22.5304031
Ar  5.4814912  9.5310920  4.2953980
Ar  5.2331278  6.7343227  6.1256861
Ar  8.4881188  0.7071881 10.4567348
Ar  8.3627308  7.2516970  2.2766574
Ar  7.4909136  6.1215510 11.1038740
Ar 10.9340632  6.1725609 10.4151870
Ar 11.7484962 21.7399085 13.8586849
Ar  9.0086051  4.4432732 15.1479773
Ar  7.8498724  7.8747688 16.7543540
Ar  6.0085145  4.0706474 16.5599254
Ar 10.9574378  4.4872420  2.7662197
Ar  9.9337745  5.5642729 18.7400571
Ar  6.9689544  8.6490739 19.7474893
Ar  8.2895119 12.5744938  0.3674896
Ar 10.5656042 13.9308362  2.6927235
Ar  9.5839229 13.8348735 20.0065662
Ar  5.6507976 12.9317563  5.2735261
Ar  9.1936859 13.0002209  5.4996015
Ar 11.2879601 11.2281028  7.9805945
Ar  8.8820998 16.0031304  0.7131562
Ar  4.3362004 13.8880848  8.2870948
Kr  8.9912610  8.8066575  9.2856747
Ar  9.1062019  9.5090395 13.0101427
Ar  8.5943563 12.8561747  9.7129204
Ar  4.3430946 11.6941837 14.0540190
Ar  7.0925536 11.3099452 16.3619366
Ar 10.1406482 11.1014900 18.6402934
Ar  9.0859956 13.2966128 13.4394944
Ar  3.5307527 12.3388072 17.2139465
Ar  4.7066981 13.5882252  1.8846487
Ar 11.1156802 18.2096422 22.0298643
Ar  9.3692218 21.1671062 22.4184538
Ar  6.6994842 19.6361967  1.0313216
Ar  6.8966229 16.1855954  4.2545249
Ar  7.0857443 15.5941815  7.8834872
Ar  8.0973002 19.0510332  5.7368451
Ar  4.6739282 16.9545167  6.8315542
Ar  5.5434627 13.4533777 11.6448783
Ar  5.9788009 17.0852951 12.5836006
Ar  6.0231759 18.5805344  9.4039255
Ar  3.5631416 19.6161368 12.5525572
Ar  6.2125939 12.7005335 19.0372472
Ar  6.1261851 15.3447041 21.0345474
Ar  5.9958672 20.3194954 17.5861752
Ar  2.1001823 19.5242854 18.9124767
Kr 12.3625002  0.8535344  1.3638242
Ar 14.4973665  2.8989167  4.1978790
Ar 15.2096380  3.9216488  0.3805635
Ar 10.8669756  1.4721008  5.2485108
Ar  8.7741412 21.3429121  3.3417652
Kr 13.5232480  2.9239759 11.1446122
Ar 11.2234822  7.7842838  6.6743751
Ar  9.4394131  3.9028742  7.5009504
Ar 10.6166760  2.3041797 13.1285490
Ar 13.6883026  0.9165512 15.8753708
Ar 16.5704900 22.8064496 13.5326132
Ar 11.4582968 22.8637622 10.8464298
Ar 10.4587893  1.7179777 16.5222621
Ar 12.0655609 22.1094599 20.1277889
Ar 13.8453975  4.0236880 14.7724519
Ar 10.8474414  2.5972877 21.8498184
Ar 12.3178749  5.3078834 21.0223968
Ar 13.6675534  7.5118730  3.9658381
Ar 15.8967685  7.6583543 21.5347601
Ar 12.6620680  7.5266239  0.6778389
Ar 12.6783024  4.8470860  5.9261485
Ar 16.8145999  3.1031558 10.9840685
Ar 17.5235673  5.5906283  2.2083079
Ar 14.8800334 13.4098210  8.7972243
Ar 11.2016669  6.5565190 13.8621323
Ar 15.0213901  5.8149485 12.2739890
Kr 13.7960459  9.5444536 12.3161691
Ar 11.4026876  8.6653355 16.2567155
Ar 14.2564148  2.5490289 19.6497107
Ar 14.6031373  6.0262839 17.9870088
Ar 14.6016611  9.9364846 18.9902830
Ar 11.5138037  8.4196829 19.8719111
Ar 12.2921596 11.5393987 22.1725380
Ar 20.9956222 12.4965518  3.2417036
Ar 15.6324784 13.8076046  1.5803339
Ar 10.8714883 17.6342110  3.3795875
Ar 10.1832615 10.0966068  2.8429566
Ar 12.7945019 14.4208228  5.6799096
Ar 18.0000672 16.6136296  7.4686181
Ar 10.3398487 16.1692467  7.7153596
Ar 11.7453012 12.7989405 10.8156043
Ar 15.9472318 13.0687888 12.8555969
Ar  9.9960236 14.5110296 16.8957106
Ar 14.5136066 15.6364332 15.8141795
Ar 11.9088019 11.4023746 14.5859682
Ar 15.3554431 12.3569568 21.1816685
Ar 12.9803650 14.4000541 19.4745854
Ar  7.5637702 18.7432998 20.7625475
Ar 13.5657281 15.7372069 22.8471441
Ar 17.7171761 18.1898616  2.8978384
Ar 14.0147841 19.1079952  0.5122053
Ar 15.0047596 19.2881908  4.0846233
Kr 14.6333455 17.1039855  7.4221685
Ar 18.4227250 14.5870608 10.4625740
Ar 13.0997877 22.1903233  4.2250474
Ar 12.2187111 19.0493854  6.1692012
Kr  8.6255172 15.9542432 11.1901422
Ar 10.3370753 16.7003072 14.4981265
Ar 12.3199999 18.7904969  9.6827440
Ar 13.8605156 19.9797919 16.4761543
Ar  7.5295250 16.6847702 17.2737046
Ar 12.1183398 17.2677790 18.3406953
Ar 15.5496944 17.3728334 18.3305440
Ar 10.1117067 19.9525457 16.4873715
Ar 15.2456800  0.5566130 21.8404771
Ar 21.6108006  0.7033199  4.4979255
Ar 19.5763210  0.6714758 20.8500598
Ar 16.0985782 22.5459757  2.0411557
Ar 15.7277781  2.1867435  7.5516093
Ar 21.7627766  3.4550809  6.6950825
Ar 18.3806060  2.8119569  5.1083304
Ar 19.0192616  4.0551748  8.2713876
Ar 16.3818383 20.2530568  7.7924130
Ar 21.4493132 22.0628795 12.1766715
Ar 21.3192810  3.1838173 11.5254062
Ar 20.1583592  0.4717681 15.4407333
Ar 20.1969641 20.6500804 17.4016392
Ar 19.0552881 20.3154468 21.8583650
Ar 21.0325190  3.1926848 18.6797113
Ar 16.8757579  0.5147190 18.4043818
Ar 15.5579142  9.8564619  2.1272092
Ar 18.5357841  2.0804564  1.1126362
Ar 19.9851217  8.4960756 22.5241164
Ar 18.7198360 10.1937611  3.3313319
Kr 14.1846369  5.7697514  8.7101071
Ar 21.3310049  5.5568885 15.3214813
Ar 19.8480325  6.4473691  5.6507455
Ar 17.5128199  6.6208838 10.3194893
Ar 17.8358915  4.9024603 13.8167647
Ar  1.8336402  5.1570535 15.4066531
Ar 20.6011042  8.6625394 11.4832989
Ar 15.4096984 10.1853136 15.5827486
Ar 18.0941353  3.8615129 17.1319132
Ar 17.6699857  4.5103038 20.5946402
Ar 17.5943008  8.7040428 13.8476287
Ar 18.2692431  7.8787252 18.3506396
Ar 19.0861897 12.0789509 19.8287262
Ar  1.6909763 11.2136152  3.4982502
Ar 18.3387700 12.5487374  0.3994995
Ar 16.4670223 13.1953393  5.4228873
Ar 13.4515321 11.2025247  4.9858562
Ar 14.1842880  9.7466122  8.5162782
Ar 21.2654293  9.6286805  5.5533377
Ar 13.2209169 15.3645660 11.2027732
Kr 18.2620822 10.8452963  9.8842433
Ar 19.4977349 12.0151795 13.2888202
Ar 21.7072207 12.2945239  9.7297886
Ar 14.1898061 19.8003267 12.9942152
Ar 20.1584062 10.3127611 16.3516521
Ar 21.9556435 14.2777225 19.4708478
Ar  1.1533524  9.2063834 17.0709700
Ar 16.9288812 14.9411463 20.0657718
Ar 17.2138603 17.2237792 22.6603623
Ar 19.4665286 15.2671950  2.0177744
Ar 21.5760089 17.9071110  1.0675490
Ar 19.9907999 21.2538676  2.0207182
Ar 19.6145909 13.0310076  6.7609738
Ar 16.7715889 17.2643350 11.6133461
Ar 19.7609681 19.4557678  5.6201361
Ar 18.9761582  0.0635681  7.1990067
Ar 18.1899311 13.5872580 16.4830119
Ar 18.3540176 19.9176491 13.6470048
Ar 19.1242930  0.8156263 10.6845855
Ar 19.4686647 16.3503056 13.8489687
Ar 15.3812849 12.8847861 17.4002135
Ar 21.9715823 17.8403602 18.0753071
Kr  3.5274298 18.1731662 15.7318016
Ar 16.0633142 20.2577294 19.7757230
256
22.876152 22.876152 22.876152
Ar  2.2342918 22.3884246 22.7106116
Ar  2.9496301  2.3410589  1.9848267
Ar  1.4850583  5.8232229  0.1296139
Ar  0.0869591  2.2094723 22.7341130
Ar  1.9252197 22.2408673  4.0533530
Ar  6.0106868 21.1791854 14.3454170
Ar  3.4059076  2.5854368  5.4203219
Ar  2.5986802  1.6120533  8.9930493
Ar 19.7041335 20.2251297  9.2545726
Ar  0.7062104  1.4479160 14.3322539
Ar  4.2483944  0.3343868 11.8458100
Ar  3.1597992  4.4476877 11.6676525
Ar  0.0940386 20.5542379 14.8711290
Ar 22.4594888  0.0132407 19.6060824
Ar  1.5355977  2.5224055 17.7598251
Ar 20.7779003  5.1904269 21.4242357
Ar 20.6552582  6.7198034  2.4537752
Ar  1.9264918  5.9204318  3.9087801
Ar  2.7506119  8.2979903  1.5996447
Ar 22.4644420  9.5533761  1.7752939
Ar 22.2056349  3.3741904  3.0994022
Ar  2.2705287  4.9342772  8.1265409
Ar  8.6302145  9.5087423  5.7011183
Ar  0.1122839  6.0081832 10.6820198
Ar  4.7240492  7.5523115  9.6776376
Ar  6.0787584  6.4190942 13.8720642
Ar  5.9625719  9.7965832 11.6298864
Ar  2.2526729  7.8900960 12.7726446
Ar  1.1709490  5.4002982 19.8871909
Ar  2.3994866  9.7022165 21.2641739
Ar  4.3223927  8.6993467 15.6822153
Ar 21.4350911  7.5419662 18.6754295
Ar 21.9056337 10.5493731 19.9873460
Ar  2.7252814  9.3605756  5.7347381
Ar 22.5980101 12.4251536 22.5162697
Ar 21.2307172 16.1884644  5.4584746
Ar 17.7215498  9.5338543  6.5560607
Kr  6.0919926 10.3899305  7.9214334
Ar  2.6346505 14.7588420  3.9418743
Ar  1.1224324 12.1506179  7.4598471
Ar  1.4817085  8.3805352  8.8187746
Ar  2.8708836 11.7826769 11.0505745
Ar  2.8170346 16.3367764 10.4938404
Ar 22.8190904 15.3678313 12.4256421
Kr  0.8374795 11.9589304 13.9192987
Ar  4.0348605 12.5989483 21.4703176
Ar  3.9511990 16.1551592 18.6844019
Ar 19.8116491 16.8299546 20.6105441
Ar 22.6860870 15.2435948  2.3393767
Ar  4.2984922 18.0165958  3.4491141
Ar  5.1335201 22.0038059  2.4829977
Ar  0.8455148 19.0148622  4.4215637
Kr  1.0628012 17.1711657  7.3867272
Ar 21.1011457 17.3338578  9.1790016
Ar  4.3299064 21.0842624  6.0765043
Ar 22.7529923 22.0914068  9.2560726
Ar  0.3469438 19.1933747 11.8665571
Ar  3.6386664 14.4903519 14.1701738
Ar  2.6445058 20.5425728  9.0482261
Ar  2.3624756 15.7177791 21.7643900
Ar  0.4556952 14.8216780 15.9600628
Ar  2.0858553 19.1080132  1.1837742
Ar  2.3265175 22.1109537 17.1476203
Kr 22.7052077 20.2192377 21.7943028
Ar  5.1394239 21.2440134 21.2447794
Ar  8.3143142  2.1272107  1.5156463
Ar  7.2331917  2.9940479 19.6633688
Ar  4.7141849  5.6243722  1.2815520
Ar  7.3293395  1.3210579  5.6487927
Ar 13.2338252  0.1729888  7.7219105
Ar  6.8087866  4.5268577  3.7266499
Ar  5.6968227  4.1730852  8.6470857
Ar  6.6914023  3.2387203 13.0126540
Ar  9.0673835 20.1648071 12.2584029
Ar 10.1489964 20.9857870  8.3349959
Ar  3.5568906  2.0453629 15.0547198
Ar  3.5492214  2.8503511 20.9450979
Kr  8.3417566 22.5340446 19.7178729
Ar  7.2410474  1.2322922 16.1712762
Ar  4.1656004  6.3380102 18.1803521
Kr  5.9071646  9.5927572  0.8022194
Ar  8.5174001  5.2995113 21.6350532
Ar  9.3973560  9.3799476 22.4097880
Ar  5.2798653  9.6858755  4.1001020
Ar  5.1657783  6.6529313  6.2179564
Ar  8.2059428  1.0156332 10.6859912
Ar  8.2503951  7.1070662  2.1341491
Ar  7.7991527  6.0357808 11.0493071
Ar 10.8715200  6.1837313 10.3463796
Ar 11.8822419 21.8800758 13.9304729
Ar  9.0778140  4.5487245 15.4434115
Ar  7.8341355  7.6842929 16.8853704
Ar  6.1075488  4.1602911 16.5845623
Ar 11.0875818  4.3738763  2.7437418
Ar  9.8090424  5.4485770 18.5867816
Ar  6.8652482  8.9492390 20.2925265
Ar  8.1437994 12.3220469  0.1962614
Ar 10.5412200 13.8688317  2.5284311
Ar  9.3206453 14.0210294 20.1092331
Ar  5.6079880 13.0457491  5.4776657
Ar  9.6085205 12.8148667  5.6365239
Ar 11.4155693 11.1783109  7.8441842
Ar  8.7655495 15.8211233  0.2498515
Ar  4.2117046 13.8695340  8.3588615
Kr  9.0476655  8.5835141  8.9523661
Ar  9.0698277  9.5675202 13.3178297
Ar  8.6743069 12.6198563  9.4233697
Ar  4.7146855 11.3347391 14.0101948
Ar  7.6806239 10.9693079 15.7567136
Ar 10.2019899 11.0350690 18.4723213
Ar  9.1585749 13.3499303 13.2807742
Ar  3.0467073 12.3138692 17.6958933
Ar  5.1370370 13.6069788  2.1227671
Ar 11.2591874 18.3159990 21.5697839
Ar  9.3873827 21.6615679 22.7504969
Ar  6.8011303 19.3612710  1.1691034
Ar  7.0385110 15.7725059  4.0424897
Ar  7.3257484 15.3533288  8.0058871
Ar  8.1046071 19.0438278  6.0123130
Ar  4.4478646 17.1417410  6.6860182
Ar  5.6090094 13.8562741 11.4596226
Ar  5.5573755 17.1979514 12.7508734
Ar  5.8255757 18.2271670  9.7982606
Ar  3.5737866 19.6860661 12.3876548
Ar  6.1399036 12.8148354 18.9300270
Ar  6.0151608 15.2247089 21.1990198
Ar  6.3498643 20.2227036 17.4560992
Ar  2.3640786 19.4765142 18.9613845
Kr 12.3182417  1.0821073  1.4693648
Ar 14.8608591  2.1957381  3.8380076
Ar 15.0177168  3.8620523  0.5815455
Ar 10.8265719  1.7903097  5.5184921
Ar  8.4360374 21.7092867  3.3609947
Kr 13.4159344  2.7783953 11.3437763
Ar 11.5743131  8.1122710  6.3083869
Ar  9.2025873  4.5448724  8.1150636
Ar 10.4259197  2.2272886 13.2067745
Ar 13.7464923  0.7681963 16.3930996
Ar 16.4581658  0.2077754 13.4949756
Ar 11.7409934  0.0937242 10.7352148
Ar 10.5484496  1.8111215 16.5914828
Ar 11.5431893 22.0115638 20.2604990
Ar 13.3880374  4.3083956 15.0176804
Ar 10.4882730  2.5255358 21.8010656
Ar 12.4650519  5.4493718 21.0163667
Ar 13.3582814  7.0549292  3.8529217
Ar 16.0106261  7.1715983 21.9467842
Ar 12.7890756  7.4705448  0.5787977
Ar 12.1902766  4.6879306  5.9246179
Ar 16.7254171  2.8507830 10.9662497
Ar 17.2560548  5.6895880  1.9970046
Ar 15.2906597 13.4671087  8.6733313
Ar 11.4268616  6.4153267 13.8386214
Ar 14.7601295  6.0251348 12.5557787
Kr 13.8550412  9.6804061 12.2189410
Ar 11.2869053  8.8884471 16.3169156
Ar 14.3155062  2.8744740 19.3416388
Ar 14.9418744  5.8729103 17.9602613
Ar 14.8980923  9.4507954 19.2788394
Ar 11.6012121  8.4908491 20.3408927
Ar 12.3894929 11.6258854 22.1457340
Ar 21.0151826 12.5740235  3.6700445
Ar 15.1983073 13.6885241  1.7393859
Ar 10.7969317 17.2727970  3.2796259
Ar 10.6046556 10.0598679  2.9335532
Ar 12.8821392 14.2412350  5.6449642
Ar 18.2450681 16.5843701  7.4878923
Ar 10.3766642 15.9971529  7.5411602
Ar 11.8605315 12.5080830 10.7617319
Ar 16.0413597 13.0157799 12.7226822
Ar  9.7065116 14.4423750 16.7646667
Ar 14.5279680 15.6207309 15.5549597
Ar 12.1328120 11.7429197 14.5394709
Ar 15.6799750 12.3592653 21.3281300
Ar 12.9981482 14.2477352 19.9305888
Ar  7.4453034 18.9003742 20.6265486
Ar 13.0680087 15.9433961  0.2010773
Ar 18.1076730 18.2919359  2.8167733
Ar 14.5696170 19.3813022  0.3822089
Ar 14.8678236 19.0090304  4.2778799
Kr 14.6014357 17.0998491  7.4137206
Ar 18.4039871 14.3181162 10.3298767
Ar 13.1358295 22.0632536  4.4065709
Ar 11.7617842 18.9052683  6.2015096
Kr  8.8329926 15.9681854 11.0644446
Ar 10.2833343 16.8038978 14.2616648
Ar 12.0745184 18.5817387  9.8505207
Ar 13.6474907 20.2535840 16.8320966
Ar  7.4804874 16.8942218 17.1709119
Ar 12.0684707 17.9337675 18.6790892
Ar 15.3013855 17.4184207 18.4495024
Ar 10.0881146 19.7054400 16.3329036
Ar 15.4435308  0.2829076 21.9696514
Ar 21.5516146  0.5532363  4.8682864
Ar 19.4814371  0.5795865 20.9604314
Ar 16.4879382 22.5940235  2.1360646
Ar 15.4311893  2.9329038  7.5022052
Ar 22.0151595  3.3871690  6.6768299
Ar 18.2766623  2.8004871  4.7181057
Ar 18.9887247  3.3123082  8.2644112
Ar 16.4460024 20.2995217  7.9643496
Ar 21.3600310 22.0778808 12.3751802
Ar 21.0948642  3.2440592 12.0141143
Ar 20.5814070  0.7597254 15.5286460
Ar 19.8920667 20.9770502 17.8417947
Ar 18.5461074 20.1694065 21.9410394
Ar 21.1543523  3.3370795 18.5606227
Ar 16.7535919  0.4559581 18.0683342
Ar 15.1834886  9.8360295  2.4861508
Ar 18.6676864  2.0439287  1.1313251
Ar 19.3620066  8.4896350 22.5738945
Ar 18.5889069 10.2170873  3.4160861
Kr 14.0481448  5.9647631  8.5286493
Ar 21.2702395  5.5415847 14.7744777
Ar 19.4910299  6.4177307  5.6288069
Ar 17.1673551  6.7618724 10.2419694
Ar 17.9153620  4.9908422 13.9678504
Ar  1.9402612  4.9698660 15.2548074
Ar 20.8305597  8.4700176 11.5542707
Ar 15.2942591 10.0781695 15.7330455
Ar 18.3626831  3.9119215 17.2006578
Ar 17.5448219  4.2321741 20.8432308
Ar 17.9181765  8.6284492 13.7173218
Ar 18.1694827  7.6893413 18.2698126
Ar 18.8112166 11.9522089 19.8547068
Ar  1.9578378 11.5585176  3.2472358
Ar 18.3396568 12.7115075  0.2972748
Ar 16.3138048 13.0055527  5.5893639
Ar 13.6259954 10.9610918  5.1163469
Ar 14.1563540  9.3542112  7.9571757
Ar 21.3956698  9.9159517  5.2751998
Ar 13.2003920 15.7439315 11.3412749
Kr 18.0067462 10.8454703  9.6739240
Ar 19.6073284 12.3694755 13.3911049
Ar 21.5136050 12.3476543 10.0414278
Ar 14.3002991 19.6808393 12.5122746
Ar 20.1958749 10.2580067 16.4498278
Ar 21.9507668 14.1997583 19.5115374
Ar  1.3168468  8.9623994 16.9583752
Ar 16.9718685 15.0514057 19.8963493
Ar 17.1269490 17.1890556 22.6527593
Ar 19.3670096 15.4744233  1.9276960
Ar 21.4889471 17.7234407  1.0118501
Ar 20.0708070 21.4662316  2.0720166
Ar 19.7724323 12.7651691  6.8966199
Ar 16.9654238 17.2992917 11.5101718
Ar 19.5855983 19.5475073  5.4550608
Ar 19.2349256  0.4367231  7.2652596
Ar 18.5660643 13.3676256 16.3777669
Ar 18.2174973 19.6556033 13.8241847
Ar 19.0848710  0.7737825 10.5852591
Ar 19.0829748 16.1594952 14.4948937
Ar 15.3112976 12.8827488 17.7999845
Ar 21.9319302 17.9433075 17.9158671
Kr  3.4645193 17.8545763 15.4418974
Ar 15.7425071 20.5538097 19.4464126
256
22.876152 22.876152 22.876152
Ar  2.2233367 22.5633918  0.4004999
Ar  2.8824398  2.5941393  1.9726345
Ar  1.1259703  4.9707248  0.5543031
Ar 22.6693401  2.2783314 22.3532877
Ar  1.7025189 22.4122892  4.1050138
Ar  6.1998421 20.9053697 14.4166908
Ar  3.4936146  2.5854751  5.3989398
Ar  2.7051994  1.4280093  9.4368462
Ar 19.7660242 20.1201020  9.2617658
Ar  0.5333447  1.5084904 14.3847483
Ar  4.2756991  0.1770212 11.9814115
Ar  3.3018305  4.5744881 11.5767507
Ar  0.1587211 20.4701989 14.9839156
Ar 22.5292013  0.1985544 18.9558228
Ar  1.7484077  2.6733062 17.9231048
Ar 20.5522701  5.0416068 21.4343069
Ar 20.6869777  6.9071087  2.6644831
Ar  1.7393480  5.3678188  3.7365612
Ar  3.1037126  8.4720310  1.8149564
Ar 22.7159835  9.7252383  1.8208194
Ar 22.1903030  3.2672239  3.0776093
Ar  2.3408247  4.7267007  8.2998944
Ar  8.6455310  9.5319923  5.2240927
Ar  0.3681842  5.9776566 10.9045329
Ar  4.8836780  6.9759324  9.5545852
Ar  5.9309590  7.0315263 13.7445002
Ar  5.8857103  9.4604082 11.4867974
Ar  2.1466512  8.0968544 13.0472094
Ar  1.5883829  5.4761471 19.6481054
Ar  2.5586944  9.5714505 21.2452016
Ar  4.5606541  8.9137129 16.1301285
Ar 21.2472333  7.5950205 18.5817502
Ar 21.7885590 10.7766955 19.4453143
Ar  2.5314051  9.4189531  5.9312834
Ar  0.1259146 12.9095974 22.3247192
Ar 21.2970102 15.8655989  5.3285600
Ar 17.4630759  9.5768047  6.5237824
Kr  6.2237888 10.4241361  7.7739902
Ar  2.7307909 15.3546090  3.9424386
Ar  0.7689542 11.7360204  7.8687136
Ar  1.4949070  8.4540911  9.0451855
Ar  2.9416794 11.4925538 10.7139226
Ar  3.1235085 16.1576197 10.2979899
Ar 22.8061907 15.6510654 12.4322689
Kr  0.9937852 12.0746302 13.7137646
Ar  4.2183757 12.4151652 21.2604374
Ar  3.9686837 16.0555852 18.8186847
Ar 20.0574627 16.8573812 20.5134288
Ar 22.7807703 15.2933744  2.1093568
Ar  4.3181738 18.2209544  3.2931288
Ar  4.6082039 21.9969026  2.6439800
Ar  1.1080413 19.0582315  4.4895962
Kr  1.0846661 17.1098287  7.5324939
Ar 21.1075655 17.1677510  9.0117470
Ar  4.4810674 21.3596682  5.7745948
Ar 22.5202046 22.0872361  9.0048198
Ar  0.3194729 19.1937127 11.8279254
Ar  3.6769371 14.3323698 13.8584455
Ar  2.9102856 20.5208373  8.8961718
Ar  1.8294178 15.8962674 21.8396945
Ar  0.7304268 15.2230508 15.9249360
Ar  1.7663339 18.6508547  1.0893488
Ar  2.2078953 22.1583829 16.9253282
Kr 22.5181533 20.2727535 21.5365328
Ar  5.3753242 21.7100832 21.5033855
Ar  8.4409509  2.2857375  1.4799305
Ar  6.6861295  2.7863624 20.0248847
Ar  4.4739297  5.5153093  1.3249122
Ar  7.4622291  1.1758712  5.4045697
Ar 13.3912265  0.2548934  7.8606874
Ar  6.7537872  4.7499023  3.6430687
Ar  5.5716064  4.0155233  8.4537316
Ar  6.8154035  2.9887927 13.2975114
Ar  9.5752071 20.1140792 11.9594862
Ar  9.8148948 21.1445077  8.1793394
Ar  3.9674859  1.8725629 14.9961058
Ar  3.6432014  2.7740760 20.8640946
Kr  8.2019113 22.7093079 19.9468600
Ar  6.9819859  1.0629038 15.8044026
Ar  4.2159596  6.5231601 18.1779140
Kr  5.9505558  9.7702691  0.8337299
Ar  8.1148197  5.4872755 21.3784605
Ar  9.3652267  9.3036659 22.5929576
Ar  5.6087085  9.9560921  4.0749205
Ar  5.1006339  6.6029277  6.2287498
Ar  7.7993474  1.2646862 10.7660385
Ar  8.2861044  7.0812489  1.9581246
Ar  7.7379991  5.9105434 11.1331537
Ar 11.5656048  6.0098608 10.5371914
Ar 11.9502403 21.9850344 14.1975947
Ar  9.2684483  4.8156641 15.3663708
Ar  7.7414201  7.5161376 16.9650035
Ar  5.8616225  4.3613522 16.6642773
Ar 11.1264760  4.3003810  2.5389508
Ar  9.9015070  5.3267728 18.4829363
Ar  6.6150805  9.2171141 20.5569423
Ar  7.9359075 12.3468151  0.0449084
Ar 10.6639032 13.6932328  2.2560530
Ar  9.0875542 14.2626802 20.3422100
Ar  5.6277521 13.0425933  5.5893803
Ar  9.6605328 12.8987297  5.6589818
Ar 11.4874380 11.0237665  7.5779517
Ar  8.7746276 15.9657315  0.0624921
Ar  3.8725776 13.7468249  8.4354615
Kr  9.0627837  8.4766626  8.6981694
Ar  9.4496994  9.2488260 13.0964730
Ar  8.6515073 12.2448583  9.2149299
Ar  4.9717655 11.4507682 14.1781179
Ar  8.0247989 11.0221996 15.7161862
Ar 10.1307192 11.1438422 18.4444824
Ar  9.1786173 13.2270739 13.2061708
Ar  2.3266006 12.2583537 18.0592127
Ar  5.6740276 13.4620165  1.9974640
Ar 11.0381136 18.6732672 21.8087302
Ar  9.4606308 22.0322847  0.6003310
Ar  7.0228214 18.7640098  1.2311722
Ar  7.4602795 15.4999931  3.8635378
Ar  7.2472280 15.0793112  7.9636761
Ar  7.9991840 18.9621955  6.2814067
Ar  4.2722661 17.3919528  6.5294645
Ar  6.0009126 14.2883701 11.2365348
Ar  5.6133334 16.9362599 13.2068793
Ar  5.7532959 18.1407697  9.7613353
Ar  3.5236691 19.9957172 12.1376706
Ar  6.4209926 12.7624107 18.5634198
Ar  5.9319064 15.4235269 21.5436604
Ar  6.6189416 20.1888873 17.5896001
Ar  2.6259776 19.0866450 19.2860412
Kr 12.2954791  1.2315334  1.5815773
Ar 15.1170842  1.7516967  3.6274836
Ar 14.5243606  3.5967025  0.5921660
Ar 10.5858113  1.6489716  5.7045310
Ar  8.3167210 21.9385717  3.4036000
Kr 13.2472981  2.8531457 11.5688588
Ar 11.7313559  8.2293760  6.0394861
Ar  8.9087504  4.9738599  8.3699377
Ar 10.1533258  2.2209852 13.2633996
Ar 13.8913192  0.7510635 16.8066829
Ar 16.3230859  0.4832914 13.4893800
Ar 11.7762279 22.5677315 10.5957256
Ar 10.8516953  1.7967720 16.9734367
Ar 11.6463250 21.8618844 20.2945370
Ar 13.0895892  4.0896757 15.6670109
Ar 10.1457025  2.4248377 21.4152535
Ar 12.7015851  5.1000765 20.8208029
Ar 13.3858999  6.5693974  3.6396702
Ar 16.0000660  6.7883793 22.2022395
Ar 12.8670865  7.7372458  0.6743506
Ar 11.7905331  4.6817123  5.9917392
Ar 16.7439128  2.9751417 11.0242738
Ar 17.2612671  5.9208625  2.1228149
Ar 15.5376756 13.5390388  8.7833411
Ar 11.3966167  6.6340166 13.5769926
Ar 14.5573552  6.3986136 12.6951875
Kr 13.9619186  9.7513713 12.0570367
Ar 11.3077597  8.8061918 16.3165109
Ar 14.3353574  2.9915984 19.1089438
Ar 15.2758733  5.8976755 17.8689386
Ar 15.1966683  8.9672630 19.5702319
Ar 11.9029491  8.6316227 20.3746451
Ar 12.3382948 11.6219403 22.2609050
Ar 21.0374020 12.9702037  3.8440402
Ar 14.7561410 13.5270355  2.0710947
Ar 10.6866792 16.9684545  3.1284927
Ar 11.1370627 10.0601376  2.9427274
Ar 12.9842331 14.2029277  5.5732600
Ar 18.3777782 16.5234973  7.4180317
Ar 10.8093484 15.8580673  7.3768505
Ar 12.0805381 12.3842517 11.1907883
Ar 16.0653726 12.9535736 12.6232659
Ar  9.6376262 14.1376517 16.4644232
Ar 14.4812429 15.5824087 15.1319108
Ar 12.3443745 12.3056478 14.5703518
Ar 15.7083369 12.0843384 21.5221320
Ar 12.9252148 14.2620556 20.3174439
Ar  7.5169099 18.8260643 20.4215568
Ar 12.5974454 16.0701459  0.4918505
Ar 18.3275031 18.6411753  2.7094006
Ar 15.0423912 19.8191028  0.2914959
Ar 14.7492180 18.7168465  4.4086565
Kr 14.5876939 17.0186925  7.4739333
Ar 18.5147323 14.1556006 10.2090249
Ar 13.1588024 21.7831449  4.5713825
Ar 11.3525714 18.9068140  6.0970560
Kr  9.0964479 16.1098764 10.9010497
Ar 10.3183102 16.9817048 14.0027669
Ar 11.7883668 18.4471271 10.0177353
Ar 13.4445887 20.5185762 16.8934766
Ar  7.2709955 17.1385066 17.0880947
Ar 11.8437624 18.3118397 18.4419409
Ar 15.1760884 17.4667680 18.4420268
Ar  9.9287195 19.5686626 16.1672408
Ar 15.5565804  0.1204152 21.8176767
Ar 21.6138808  0.1440118  5.0402985
Ar 19.1410457  0.5807168 21.0610927
Ar 16.9540788 22.2316839  2.5246369
Ar 15.2971448  3.4802983  7.3440053
Ar 22.4922813  3.4182343  6.6767714
Ar 18.2325984  2.8435130  4.2950953
Ar 18.7783410  3.3832519  8.5119029
Ar 16.4415017 20.3935467  8.0952916
Ar 21.2109896 22.0750362 12.7596242
Ar 20.8377809  3.1584679 12.4822678
Ar 20.5973988  1.0703355 15.7957011
Ar 19.5228214 21.2585547 18.3311989
Ar 18.0825852 20.0954966 21.9671991
Ar 21.5623090  3.3863924 18.5921071
Ar 16.9436744  0.6242606 17.6768214
Ar 14.9504134  9.7280187  2.4591786
Ar 18.9125511  2.2134802  1.1406796
Ar 18.7081625  8.5996163 22.5044094
Ar 18.3111214 10.1810809  3.1481849
Kr 13.9500173  6.1384102  8.5087308
Ar 21.2752576  5.6615602 14.3633976
Ar 19.0880447  6.3346242  5.7425782
Ar 17.0370331  6.9732222 10.0969604
Ar 17.9252890  5.0497126 13.9715550
Ar  2.0445767  5.0051445 15.0847978
Ar 21.0015915  8.4166927 11.6455055
Ar 15.1412982  9.9076654 15.8474189
Ar 18.1785445  4.0078005 17.1647099
Ar 17.3504430  3.8246237 21.0282317
Ar 18.2503633  8.5621519 13.5496869
Ar 17.8700790  7.5316491 18.1823880
Ar 18.5228148 11.7744494 19.7056957
Ar  2.2192917 11.9708972  2.8879507
Ar 18.6208544 12.6759986  0.3214013
Ar 16.3767429 12.8540987  5.4971224
Ar 13.6056046 10.7807484  5.1648373
Ar 14.6732727  9.1426747  7.7462526
Ar 21.7935397  9.7515373  5.3709682
Ar 13.3478116 16.0865981 11.6224468
Kr 17.7298538 10.8170924  9.6379642
Ar 19.8195086 12.6448520 13.2554168
Ar 21.3923029 12.3849881 10.4367536
Ar 14.4945964 19.5343329 12.0340995
Ar 20.2856494 10.1343593 16.5218213
Ar 21.9716012 14.1616757 19.4401830
Ar  1.2390931  8.7678653 16.9133220
Ar 17.2401201 15.0937915 19.7311478
Ar 16.8007518 16.9268264 22.6415130
Ar 19.1216318 15.3451955  1.9674386
Ar 21.1778751 18.1125036  0.7868377
Ar 20.2227038 21.6812920  2.1452904
Ar 19.8999304 12.5621409  7.1035953
Ar 17.0938647 17.3428828 11.3370132
Ar 19.5515404 19.8203804  5.5668474
Ar 19.3162126  0.1330747  7.1378287
Ar 19.0466910 13.1926794 16.5187390
Ar 18.1232718 19.4895807 14.0405568
Ar 19.0643859  0.4492156 10.4972384
Ar 18.7365137 16.0936209 15.0295167
Ar 15.0444178 12.7653707 18.1736884
Ar 21.9589758 18.0235442 17.7169258
Kr  3.2626346 17.6344691 15.3356602
Ar 15.4878172 20.8208490 19.4678856
256
22.876152 22.876152 22.876152
Ar  1.9556744 22.6275896  0.6484079
Ar  2.9786723  2.5511932  2.0513742
Ar  0.6292622  4.6777270  0.6422839
Ar 22.2051726  1.9776903 21.7875659
Ar  1.7449471 22.7150835  3.9814496
Ar  6.3632620 20.5772054 14.1323995
Ar  3.6313593  2.5659145  5.5017524
Ar  2.6579801  1.3040782  9.6183931
Ar 19.6557077 20.0592177  9.3716380
Ar  0.7148973  1.6449586 14.1986828
Ar  4.5920961  0.3045785 12.2313114
Ar  3.6757104  4.5171674 11.7360605
Ar  0.2066164 20.1792720 15.3227098
Ar 22.5088818  0.2120801 18.4675060
Ar  2.3260639  2.7014109 17.8062265
Ar 20.3694102  5.0515689 21.5881412
Ar 20.7907059  7.0548468  2.8035111
Ar  1.7307232  5.1425683  3.9933606
Ar  2.9609326  8.6611680  2.2648691
Ar 22.7897577  9.9222690  1.7670682
Ar 21.9120732  2.9524683  3.0382953
Ar  2.3192394  4.7006994  8.3066762
Ar  8.8046930  9.4579631  4.7228251
Ar  0.3303952  5.6254111 11.2529602
Ar  4.8723886  6.6309593  9.4644344
Ar  5.7340195  7.3743263 13.8165333
Ar  6.0099805  9.4359118 11.2089358
Ar  2.1122672  8.4016235 13.3501114
Ar  1.3708982  5.5848380 19.7687186
Ar  2.5621713  9.2016395 21.1778183
Ar  4.8438676  9.4950416 16.4647562
Ar 21.2159906  7.2519583 18.5808047
Ar 21.8786061 10.9877972 19.1356835
Ar  2.4460992  9.4434081  5.9863714
Ar  0.5455559 13.0714462 22.3354843
Ar 21.3328701 15.8810921  5.3364139
Ar 17.7888672  9.5258452  5.9440566
Kr  6.1083059 10.3817260  7.6730379
Ar  2.8669257 15.8131455  4.1033007
Ar  0.4058929 11.4744801  8.1425221
Ar  1.5655333  8.5966639  9.2498521
Ar  3.0528879 11.0988882 10.5082071
Ar  3.1698224 16.2381177 10.5403425
Ar 22.7720478 15.8629966 12.3978674
Kr  1.0438450 12.1034177 13.5483987
Ar  4.4067123 12.3687506 21.1747574
Ar  3.9933033 15.7587571 18.7649425
Ar 20.3298414 17.0201349 20.4925598
Ar  0.0748858 15.2994442  1.8584515
Ar  4.5262150 18.6040771  3.0589247
Ar  4.5899885 21.9803066  2.4959616
Ar  1.2411231 19.0495920  4.6004577
Kr  1.2871233 17.0170889  7.5677923
Ar 20.8221275 16.7491967  9.4384517
Ar  4.8113978 21.5012468  5.8749780
Ar 22.3311391 22.2121262  8.7341937
Ar  0.0789997 19.0666075 11.5009894
Ar  3.4913267 14.4967314 13.5730449
Ar  3.1744741 20.4442598  8.6084446
Ar  1.3728366 16.1026051 21.7298438
Ar  0.7670613 15.3881881 16.0341976
Ar  1.5148816 18.3404468  1.0190957
Ar  2.4362852 22.2299738 16.7540590
Kr 22.3355873 20.4609891 21.1039650
Ar  5.3219566 22.1005570 21.9272724
Ar  8.3562156  2.4915730  1.5676792
Ar  6.3987183  2.7723300 20.0934128
Ar  4.4880898  5.3642318  1.1237195
Ar  6.9340558  1.5497696  5.6454237
Ar 13.7609479  0.4008296  7.7135674
Ar  6.6928492  4.6323670  3.8818469
Ar  5.6577377  3.3729950  8.2558452
Ar  6.7205374  3.2312678 13.4312894
Ar  9.7316583 20.0649191 11.9248554
Ar  9.3961462 21.4586224  8.0831294
Ar  4.1199084  1.7914219 14.9827816
Ar  3.2042649  2.6578351 21.0943276
Kr  8.1610903 22.7154874 20.0193712
Ar  7.2115482  0.5689292 15.9264311
Ar  4.4174392  6.7457928 18.8156920
Kr  6.0364684  9.9395480  0.7263032
Ar  7.7177364  5.9607452 21.4033887
Ar  9.6005755  9.2762831 22.7143069
Ar  5.5506199 10.1560272  4.4935877
Ar  5.0049292  6.6696363  6.0090868
Ar  7.4808562  1.3063669 10.5121994
Ar  8.4197569  7.0716185  1.8605066
Ar  7.6816303  5.8101922 11.5658769
Ar 11.6018730  5.7524911 10.7899033
Ar 11.9370088 22.1751261 14.3079375
Ar  9.2301707  4.9308305 15.0671476
Ar  7.6001372  7.4987654 17.0688673
Ar  5.9195018  4.2118375 16.5193030
Ar 11.0020847  4.4302026  2.2635028
Ar 10.2204444  5.1836325 18.6436779
Ar  6.3348550  9.3878671 20.1447508
Ar  8.1310512 12.5856324 22.5197372
Ar 10.7688239 13.3248586  1.9838944
Ar  9.0896415 14.3424046 19.9980901
Ar  5.6008875 13.2143249  5.5009496
Ar  9.3897727 13.2195351  5.4211313
Ar 11.6951854 11.0017299  7.9733681
Ar  9.1588570 16.2550389  0.3907499
Ar  3.5606670 13.4413236  8.1439370
Kr  9.1521113  8.3695448  8.5522163
Ar  9.6960037  9.1318806 12.4036496
Ar  8.8343547 11.9897777  9.3095934
Ar  5.3316863 11.7069400 14.0691762
Ar  8.2038719 11.0753934 15.8961036
Ar 10.0414903 11.4129238 18.7217560
Ar  9.1027985 13.0621948 12.9831360
Ar  1.6626116 12.2263468 18.3765280
Ar  5.7453302 13.3262994  1.9434994
Ar 10.6782405 19.1648860 22.3125942
Ar  9.7698687 22.2084205  0.5724064
Ar  7.1991338 18.4220578  1.3314493
Ar  7.9397717 15.4697261  3.8047494
Ar  7.0675093 15.0060753  7.7420679
Ar  7.6276575 18.7635383  6.4707289
Ar  4.5093066 17.6311930  6.4775362
Ar  6.4391768 14.4052568 10.9470060
Ar  6.2886479 16.8562156 13.3855899
Ar  5.9072723 18.1926451  9.6498909
Ar  3.5799721 19.8758430 12.0986187
Ar  6.6777631 12.7181226 18.1163326
Ar  5.5938289 15.6757940 21.8751291
Ar  6.6659322 20.6047003 17.8469139
Ar  2.8207737 18.8639949 19.6529230
Kr 12.1986772  1.1585608  1.6792598
Ar 15.1399114  1.6357457  3.6718508
Ar 14.2585740  3.5428902  0.5196137
Ar 10.5440511  1.0678827  5.8435973
Ar  8.1433092 21.5411433  3.6966862
Kr 13.1110422  2.9810627 11.8161900
Ar 11.6966691  7.9711131  5.7719055
Ar  8.7723384  5.0328031  8.1024320
Ar  9.9633453  2.1085990 13.3283247
Ar 14.0294909  0.8103033 16.7448304
Ar 16.1708175  0.6981119 13.5574856
Ar 11.7224266 22.1357666 10.7497515
Ar 10.6899455  1.7611769 17.4981224
Ar 12.0184319 21.7303284 20.2862040
Ar 12.8588790  3.9232440 16.2239470
Ar 10.0367181  2.4411425 20.9400180
Ar 12.7221481  5.0247185 20.8281631
Ar 13.7957264  6.0337984  3.5507167
Ar 15.6543881  6.4036097 22.1523099
Ar 12.7263185  7.9530564  0.4729464
Ar 11.5100812  4.8747744  6.2246302
Ar 16.6213988  3.2830545 11.2386852
Ar 17.3855400  6.0396297  2.6056470
Ar 15.4920343 13.6538188  8.9434825
Ar 11.4981461  6.7569978 13.8244191
Ar 14.6620238  6.5171607 12.8415220
Kr 14.1500177  9.7646633 11.8915057
Ar 11.4350186  8.6231079 16.2952791
Ar 14.5501319  2.8328345 19.1202386
Ar 15.1082013  5.8709835 17.6191614
Ar 15.4535616  8.7391681 19.8770900
Ar 12.1339644  8.7150284 20.1367791
Ar 12.1586378 11.4840136 22.5569188
Ar 21.0059559 12.9552373  3.7700021
Ar 14.3322263 13.3347537  2.3984160
Ar 10.5714847 16.9234309  3.2141596
Ar 11.6033587 10.0689438  2.7476152
Ar 13.2398735 14.1568895  5.3373984
Ar 18.1827365 16.4127904  7.1556663
Ar 11.0765645 15.7214345  7.4442229
Ar 12.1184749 12.5644941 11.3395427
Ar 16.0460185 12.9048149 12.5620788
Ar  9.6265953 13.9960137 16.3110381
Ar 14.4780636 15.5341069 14.8087191
Ar 12.6097119 12.8377116 14.7937093
Ar 15.5483663 11.7657172 21.8340918
Ar 12.7666006 14.5265167 20.6148505
Ar  7.7017956 18.5725372 20.4459177
Ar 12.4059148 16.1238164  0.6738912
Ar 18.2774672 18.9144323  2.5275633
Ar 15.0379826 20.2373226  0.4261344
Ar 14.7161458 18.4053730  4.3537881
Kr 14.5634309 16.9147596  7.6339272
Ar 18.7263472 14.3001742 10.1594236
Ar 13.1069056 21.5429213  4.6870309
Ar 11.2103420 19.0015769  5.8823801
Kr  9.3460581 16.2544294 10.6628291
Ar 10.4776156 17.0869065 13.8658931
Ar 11.5887700 18.4925495  9.7618169
Ar 13.3703163 20.4834147 16.6413336
Ar  7.1291200 16.9391397 16.9252636
Ar 11.4551525 18.1685205 18.4239432
Ar 15.0817201 17.5012708 18.3532484
Ar  9.5396940 19.7083886 15.8595551
Ar 15.6410590  0.3833570 21.9073731
Ar 21.5423083 22.7248716  5.0880060
Ar 18.8859615  0.5926289 21.0800724
Ar 17.3360191 21.6845310  2.8408170
Ar 15.4612742  3.4168354  6.8928856
Ar 22.8227264  3.3822186  6.6333313
Ar 18.3193143  2.9793988  4.2056899
Ar 18.7557660  3.8065149  8.5588096
Ar 16.3574583 20.4949565  8.1978686
Ar 20.9751867 22.1203320 13.0306227
Ar 20.4937422  2.7646868 12.6568584
Ar 20.1396047  1.3318763 16.2812985
Ar 19.2183521 21.3059799 18.7604146
Ar 18.0498611 20.0976296 21.8621124
Ar 21.6398398  3.6194668 18.5890495
Ar 17.4492714  0.8829822 17.3710611
Ar 14.9857080  9.5848942  2.0886703
Ar 19.2230700  2.4640617  1.0189029
Ar 18.2721132  8.8661628 22.4297186
Ar 18.1872657 10.1641421  2.8108227
Kr 13.9670437  6.2451951  8.4132037
Ar 21.4588045  6.1458679 14.2696629
Ar 18.6539638  6.2059324  5.9385455
Ar 17.0648774  7.1977658  9.9880403
Ar 17.7751081  5.0870574 13.8061268
Ar  2.1527706  5.1125222 14.9412168
Ar 21.2379327  8.5217417 11.6442432
Ar 15.0033430  9.6946256 15.9355068
Ar 18.0539820  4.0547742 17.2715289
Ar 17.0930151  3.3333614 21.1328307
Ar 18.3846558  8.5883595 13.4909157
Ar 18.0728543  7.6612641 18.0555911
Ar 18.2569197 11.4613770 19.5092819
Ar  2.5510620 12.4118494  2.5518835
Ar 19.0095303 12.3362349  0.2591268
Ar 16.6209805 12.7760871  5.2621455
Ar 13.6922265 10.9541923  5.0838221
Ar 14.9559404  9.5097783  8.0339638
Ar 22.1141253  9.4523972  5.5103981
Ar 13.6063467 16.1304737 11.9431732
Kr 17.4826964 10.7264081  9.8076578
Ar 19.8846904 12.8934587 13.3455338
Ar 21.5766353 12.3114058 10.6038185
Ar 14.6580071 19.5339887 11.6216206
Ar 20.3501732  9.8235124 16.3052230
Ar 21.9785433 14.3334336 19.1206838
Ar  1.0225320  8.5960583 16.8744976
Ar 17.5453444 14.9722056 19.5409831
Ar 16.4278648 16.4983025 22.6602569
Ar 18.8995873 15.3868546  2.2304620
Ar 20.7206393 18.4599902  0.6771869
Ar 20.6197453 21.8500516  2.0425152
Ar 19.9814820 12.3949436  7.3426465
Ar 17.2755428 17.3041553 11.0803300
Ar 19.6525492 19.9955220  5.8084142
Ar 18.9040352 22.6952098  7.2009401
Ar 19.4103825 13.0898559 16.9304773
Ar 18.0384629 19.4504827 14.2677901
Ar 18.9731414  0.1299572 10.5394560
Ar 18.3794449 16.2295761 15.4219100
Ar 14.8379077 12.5549873 18.3007023
Ar 22.0087152 18.1252496 17.5230165
Kr  2.9466076 17.6502638 15.4382044
Ar 15.3488984 20.8593660 19.4817185
256
22.876152 22.876152 22.876152
Ar  1.3161825 22.5185877  0.3995166
Ar  3.2386471  2.3908852  2.1664092
Ar  0.1752868  4.7589688  0.5035402
Ar 21.8144470  1.4828302 21.1850097
Ar  1.9785909  0.0723777  4.0185104
Ar  6.4965224 20.1965330 13.8027062
Ar  3.5549445  2.5641218  5.6517945
Ar  2.5126840  1.2245009  9.6455778
Ar 19.5751959 19.6763310  9.5301203
Ar  0.8495642  1.7790695 14.0069411
Ar  5.0329200  0.3342463 12.2820038
Ar  4.0274225  4.2976534 12.0084803
Ar  0.2185736 20.0732871 15.2541797
Ar 22.5000219  0.1164571 18.1271829
Ar  2.8264985  2.8338655 17.7439248
Ar 20.1306538  5.2115286 21.7457430
Ar 20.9396248  7.1630645  2.9293938
Ar  1.7815824  5.2034290  4.4036423
Ar  2.8500715  8.6881848  2.7458828
Ar 22.6595017 10.2162964  1.6528097
Ar 21.6542250  2.4898388  3.1916848
Ar  2.4039171  4.8199928  8.3806713
Ar  9.0155636  9.3981464  4.2963728
Ar  0.2759945  5.1845646 11.5582535
Ar  4.9888799  6.5967960  9.3798712
Ar  5.4449359  7.5283064 14.1452912
Ar  6.3208363  9.5709093 10.9204552
Ar  2.1015509  8.7152689 13.5813404
Ar  0.9121414  5.6566945 20.1982461
Ar  2.5240441  8.8032594 21.1141097
Ar  4.8582979  9.8930868 17.0564462
Ar 21.3579522  6.8889387 18.7000156
Ar 21.4543690 10.7517846 19.1760460
Ar  2.6274020  9.4624010  6.0291144
Ar  0.8831067 12.6753493 22.2520538
Ar 21.3904249 16.1961143  5.4697176
Ar 18.3206525  9.4602647  5.5823777
Kr  5.9225957 10.3151268  7.7579037
Ar  2.9106412 16.0101994  4.2347737
Ar  0.3186971 11.3288675  7.9176785
Ar  1.5062831  8.1688018  9.4686528
Ar  3.2940421 10.9532019 10.6159161
Ar  3.1481793 16.4098865 10.7702131
Ar 22.7506766 15.8351677 12.4636110
Kr  0.9991582 12.0530195 13.4331496
Ar  4.5623093 12.3739944 21.0924884
Ar  4.0077692 15.2964173 18.5903329
Ar 20.5144761 17.2439120 20.4652849
Ar  0.0876278 15.3720907  1.8513191
Ar  4.4677335 18.9841281  3.0335246
Ar  5.0596589 22.0617223  2.4247028
Ar  1.3032631 19.1423310  4.6934537
Kr  1.3759857 16.8897600  7.6552315
Ar 20.8865108 16.5402875  9.8338969
Ar  5.2299993 21.6175217  6.0147784
Ar 22.2438940 22.3849335  8.4857576
Ar 22.7036041 19.1442730 11.0892194
Ar  3.3890739 14.8243122 13.4032742
Ar  3.2729105 20.3251815  8.4150026
Ar  1.0577619 16.3029708 21.0528773
Ar  0.3924280 14.9900032 16.1524464
Ar  1.3444041 18.5314496  1.2295831
Ar  2.9196792 22.1607109 16.6821910
Kr 22.1866542 20.6870045 20.6361981
Ar  5.1045957 22.4565494 22.2534411
Ar  8.0999940  2.5974258  1.5926717
Ar  6.3181462  3.0065858 20.0307393
Ar  4.6066071  5.4272384  0.7847977
Ar  6.7005675  1.6642222  5.6165595
Ar 14.1213894  0.5292308  7.6292168
Ar  6.6847108  4.4843517  4.1107510
Ar  5.5674748  2.8933844  8.4011731
Ar  6.5488477  3.3547644 13.4017439
Ar  9.2737875 19.8590256 12.3050017
Ar  8.9041833 21.7345770  8.0644967
Ar  4.0303323  1.8625640 15.0438586
Ar  2.4201650  2.5189207 21.5900531
Kr  8.2671682 22.5754643 20.0671130
Ar  7.7703476  0.1882937 16.1240403
Ar  4.8387804  6.8860131 19.2859253
Kr  6.0731795 10.0206645  0.7246056
Ar  7.3239972  6.4608420 21.4202916
Ar  9.6709399  9.3847285 22.5049460
Ar  5.2332165 10.1097592  4.2127910
Ar  4.8369986  6.8218586  5.7565906
Ar  7.3809499  1.2364324 10.2154956
Ar  8.4139059  6.8422192  2.0402341
Ar  7.8663829  5.8682804 11.7825258
Ar 11.0494384  5.6369624 10.7603134
Ar 11.7858104 22.4586426 14.1797208
Ar  8.9719347  4.9526512 15.0367252
Ar  7.5915371  7.4702204 17.2037146
Ar  5.9968640  4.2091098 16.6378181
Ar 10.9084918  4.7678148  2.0166383
Ar 10.3514774  5.1772899 18.6114056
Ar  6.3018825  9.7197298 19.6364977
Ar  8.4817043 12.7229143 22.1084786
Ar 10.6248395 13.1711859  2.0035040
Ar  9.1937180 14.8800707 19.4868533
Ar  5.4455484 13.5767815  5.1309915
Ar  9.3537083 13.1064302  5.4469591
Ar 11.9808321 11.0373071  8.3672242
Ar  9.4939233 15.8837768  0.2433725
Ar  3.1962300 13.2665945  7.8138057
Kr  9.2714378  8.3247646  8.4463567
Ar  9.6689512  9.4168557 11.5880937
Ar  8.9402346 11.9434463  9.5717147
Ar  5.7581990 12.1783257 13.5917831
Ar  8.4913500 10.6048978 15.6805030
Ar 10.1131464 11.4773201 19.1330363
Ar  8.9599553 12.8919142 12.7387650
Ar  1.7685794 12.4092969 18.4833173
Ar  5.8208029 13.3779926  1.9357520
Ar 10.4911307 19.3500221 22.7438467
Ar  9.6237584 22.3682540  0.2185553
Ar  7.3560217 18.6117253  1.4076862
Ar  7.6808840 15.6213935  3.6385841
Ar  7.0987041 15.2147912  7.5443266
Ar  7.6745061 18.6591883  6.5812651
Ar  4.5844919 17.7718917  6.4321151
Ar  6.5745185 14.2469637 10.7783388
Ar  7.0336538 16.8939533 13.5339134
Ar  6.2121781 18.2936564  9.6514865
Ar  3.5619517 19.5291587 12.1210533
Ar  6.6011673 12.8576290 17.9076671
Ar  5.3019704 15.9771646 22.2890708
Ar  6.3516558 20.7602752 17.9229718
Ar  2.9819896 18.8190638 20.0221026
Kr 12.1747635  1.0103912  1.8924205
Ar 15.1300176  1.5497336  3.7443976
Ar 14.2250358  3.5116482  0.5935694
Ar 10.6334455  0.5867015  5.8894751
Ar  7.9403684 21.0237220  4.1450477
Kr 13.0494610  2.9551568 12.1232886
Ar 11.7999350  8.0400654  5.5232639
Ar  8.4457641  4.8039307  7.8709506
Ar  9.7816614  1.8824166 13.3435353
Ar 14.1381007  0.6622360 16.3095857
Ar 16.0308581  0.8453148 13.6688283
Ar 12.0588986 22.1226653 10.6925215
Ar 10.2867783  1.5121561 17.9220208
Ar 12.3326840 21.7069286 20.2524801
Ar 12.4959906  3.9036891 16.4273075
Ar 10.1476804  2.7280144 20.8427523
Ar 12.6051875  5.1849373 20.9365685
Ar 14.3284346  5.5284227  3.4881341
Ar 15.4987953  6.1016311 22.1967734
Ar 12.5042606  7.7120012  0.1419344
Ar 11.3375435  4.5004009  6.3210966
Ar 16.4698966  3.5348252 11.2666464
Ar 17.4651451  6.1943629  2.9789103
Ar 15.2957935 13.7190286  9.0633632
Ar 11.9497258  6.5532300 14.1425600
Ar 14.9950550  6.3889207 12.9715760
Kr 14.3469346  9.7820328 11.7193000
Ar 11.5026080  8.7967078 16.7313789
Ar 14.6768437  2.6657195 19.2843466
Ar 14.8552736  6.0571847 17.4027185
Ar 15.6726120  8.7800804 20.0480311
Ar 12.1598293  8.7804226 19.7131552
Ar 12.2161946 11.3987910 22.4814441
Ar 20.9442654 12.5266157  3.5770230
Ar 14.0921638 13.0516094  2.3101893
Ar 10.8853186 17.1957498  3.5485028
Ar 11.8071774 10.0100916  2.6312636
Ar 13.4093593 14.4358959  5.3309526
Ar 17.9064854 16.2872205  6.7962688
Ar 11.1683469 15.5759667  7.5724200
Ar 12.1160332 12.9367853 11.2892837
Ar 16.0237185 12.9283926 12.5627169
Ar  9.6967035 14.2064095 16.2400967
Ar 14.8448004 15.6440390 15.1062038
Ar 12.7664463 13.0528232 15.0940388
Ar 15.4422056 11.5297747 22.1970654
Ar 12.6276706 14.7492552 20.7049360
Ar  7.8956075 18.2190739 20.5595097
Ar 12.8258930 16.2394725  0.7760442
Ar 17.9583618 18.4412390  2.6215902
Ar 14.6554935 20.4742157  0.7696683
Ar 14.7313535 18.0692390  4.1669592
Kr 14.5301087 16.8624801  7.8550983
Ar 18.7060622 14.1648591 10.2062177
Ar 13.1363110 21.4388794  4.6666723
Ar 11.0787467 19.1634905  5.9045247
Kr  9.4944688 16.2948895 10.4258379
Ar 10.7475809 17.0691818 13.8713225
Ar 11.8888877 18.7036581  9.1289630
Ar 13.3937549 20.0068362 16.4757002
Ar  7.0094569 16.6723499 16.8223924
Ar 10.9955450 17.8682149 18.5889933
Ar 15.0069074 17.4538634 18.2440555
Ar  9.1366920 19.9952431 15.5904295
Ar 15.4599889  0.6667977 22.2147901
Ar 21.2428933 22.6641279  5.3450566
Ar 18.8670425  0.5504486 21.1555333
Ar 17.2709723 22.0252822  3.3028570
Ar 15.7487804  3.2710936  6.3741400
Ar 22.8101944  3.1172199  6.4285373
Ar 18.4625666  3.0880663  4.3882992
Ar 18.8636070  4.1528447  8.5934710
Ar 16.1431162 20.5146184  8.2901162
Ar 20.8525389 22.0271197 13.4468662
Ar 20.1078092  2.4435909 12.7820126
Ar 20.4671185  1.7397607 16.2151723
Ar 19.1134325 20.9333574 18.8153033
Ar 18.2344931 20.0290902 21.7529621
Ar 21.5902654  3.7944902 18.4922361
Ar 17.0417576  0.8393138 17.4346931
Ar 15.1733929  9.4973918  1.7666548
Ar 19.4286711  2.7037600  0.8049424
Ar 17.9178711  9.0570948 22.2711067
Ar 18.3305438 10.2146255  2.3918404
Kr 14.0740861  6.3302116  8.2359762
Ar 21.6222137  6.6577947 14.3588229
Ar 18.2510143  6.0695483  6.1565187
Ar 17.2004882  7.2696613  9.9497872
Ar 17.7801164  5.1665599 13.8314800
Ar  2.2648903  5.2306662 14.8679071
Ar 21.5716643  8.7665065 11.5088985
Ar 14.9013730  9.4498990 15.9992098
Ar 18.0560268  4.3319805 17.4404455
Ar 17.1343560  3.3689717 21.2945129
Ar 18.3092446  8.6803611 13.4678285
Ar 18.2407413  7.8922708 17.8210165
Ar 17.9472865 10.9611871 19.4711911
Ar  2.6769623 12.7812901  2.2943640
Ar 19.4970371 12.0931636  0.0493436
Ar 17.0033376 12.8273359  5.0349345
Ar 13.9694591 10.9383791  5.1167513
Ar 14.8222970  9.9298747  8.2134348
Ar 22.0706210  9.1116446  5.5458031
Ar 13.6795104 16.1930423 11.6383422
Kr 17.4776644 10.7281460 10.1226869
Ar 19.7500928 13.1825866 13.7730496
Ar 21.7236462 12.2842284 10.8892769
Ar 14.7623029 19.6775070 11.2489999
Ar 20.4404674  9.4548022 15.8573192
Ar 21.9387167 14.7056858 18.9048400
Ar  0.9182740  8.4596937 16.8091178
Ar 17.8098736 14.8357181 19.3389200
Ar 16.0245481 16.0925368 22.6888132
Ar 18.7020213 15.4091562  2.5437190
Ar 20.7480979 18.6053429  0.5262850
Ar 21.1826598 22.0048532  1.6631184
Ar 19.9583501 12.2571290  7.4911360
Ar 17.4647860 17.2916835 10.8143242
Ar 19.7891782 19.5796724  5.8211297
Ar 18.2448656  0.0946056  7.2971820
Ar 19.7769479 13.1623733 17.1404673
Ar 17.9409936 19.5611141 14.4416794
Ar 18.6311172  0.1690244 10.7102362
Ar 18.0294597 16.2826552 15.8348948
Ar 14.6290603 12.3341322 18.3670236
Ar 21.9133803 18.0245022 17.6377784
Kr  2.8834562 17.9299500 15.5059451
Ar 15.3656326 20.8325001 19.4059444
256
22.876152 22.876152 22.876152
Ar  1.2060797 22.3323065 22.8168276
Ar  3.6241776  2.4624037  2.1089699
Ar 22.6693901  4.7817477  0.7021276
Ar 21.8754366  1.2576750 20.7543364
Ar  1.9306964 22.8183395  4.2488603
Ar  6.0557675 20.0440990 13.6334400
Ar  3.2499990  2.6357667  5.8744090
Ar  2.3400748  1.1411212  9.6680384
Ar 19.4901525 19.5245481  9.5744631
Ar  0.8012424  1.8992495 13.7654101
Ar  5.2948926  0.1057840 12.2412444
Ar  3.8192644  4.2307715 11.8966694
Ar  0.2262519 20.2270156 14.9980816
Ar 22.7543805 22.8659931 17.6382791
Ar  3.0182818  3.1702457 18.2249410
Ar 19.9090610  5.7232140 21.6772567
Ar 21.0737054  7.1616273  2.9241979
Ar  1.7749924  5.4637271  4.6668790
Ar  2.4566988  8.4282764  2.8857274
Ar 22.5235867 10.3814229  1.4765308
Ar 21.7445418  2.0913281  3.3268657
Ar  2.3371838  4.8283783  8.3964770
Ar  8.8529633  9.4907697  4.0019708
Ar  0.2609865  4.6975053 11.8015510
Ar  5.3279284  6.7249934  9.3448325
Ar  5.2023149  7.6304754 14.4846170
Ar  6.7101044  9.5495718 11.1190954
Ar  2.1381210  8.8734071 13.6571153
Ar  1.0349551  5.6584485 20.7023086
Ar  2.4699187  8.5449093 21.1145637
Ar  4.3626207 10.3433895 16.8846765
Ar 21.1831743  7.1336385 18.7024201
Ar 21.0104301 10.3857200 19.3328932
Ar  2.6766765  9.4979592  6.3286004
Ar  1.1644438 12.2536574 21.9516263
Ar 21.4441263 16.4282912  5.5307549
Ar 18.7858494  9.4161429  5.5523582
Kr  5.7264044 10.3155647  7.7001482
Ar  2.7704436 15.9610439  4.1483953
Ar  0.3350856 11.1871596  7.6537174
Ar  1.4435425  7.6212373  9.6291939
Ar  3.4491464 11.0002026 10.7867700
Ar  3.1435797 16.6748786 10.4933221
Ar 22.8432799 15.6692949 12.7447967
Kr  1.0077549 12.0374010 13.4863837
Ar  4.6440282 12.4911763 21.0562073
Ar  3.9933088 14.9660852 18.4258825
Ar 20.3073643 17.4715889 20.5763074
Ar 22.8543325 15.3897394  1.8984532
Ar  4.2123021 19.0850949  3.1830968
Ar  5.5953554 22.4728622  2.7937573
Ar  1.2561836 19.3593114  4.8787245
Kr  1.3712723 16.7412775  7.7673823
Ar 21.1464232 16.4538732  9.8744480
Ar  5.4204357 21.5903557  6.2321441
Ar 22.2219152 22.5185182  8.4881884
Ar 22.6467152 19.4272367 10.7403498
Ar  3.3886555 14.9411349 13.7432245
Ar  3.1680874 20.2134144  8.4444729
Ar  0.9651756 16.5544699 20.6194650
Ar  0.2502559 14.5703433 15.7531784
Ar  1.2938269 18.8819099  1.3683743
Ar  3.3062244 21.8243826 16.7315352
Kr 22.0769450 20.7783290 20.2819629
Ar  4.8877461  0.0233773 21.9497093
Ar  7.7975153  2.6220248  1.5229791
Ar  6.2222343  3.2543389 20.0401882
Ar  4.7089002  5.5419772  0.4490335
Ar  7.2056590  1.3267816  5.2051666
Ar 14.3805755  0.6108158  7.6046983
Ar  6.6660286  4.5838956  4.2112171
Ar  4.9708971  2.9955992  8.8281761
Ar  6.7678701  3.0608548 13.4860083
Ar  9.1863031 19.6529688 12.1890420
Ar  8.3465356 21.7376000  8.1157388
Ar  4.1203465  1.9464898 14.8485262
Ar  1.7593721  2.4674191 21.9742507
Kr  8.2905236 22.3904388 20.0262884
Ar  8.0941168  0.1949532 15.9402748
Ar  4.7431978  6.5506477 19.4598236
Kr  6.1151013 10.0087968  0.6546288
Ar  7.2417755  6.9406831 21.5930379
Ar  9.3088775  9.3423689 22.2231204
Ar  5.4246671 10.2930546  3.9065582
Ar  4.6874629  6.9711305  5.5714165
Ar  7.8509237  1.0512265 10.2344525
Ar  8.1590103  6.7514626  2.1578300
Ar  7.8620094  6.2493441 11.8540643
Ar 10.7127410  5.5895831 10.4885218
Ar 11.6768392 22.3538445 14.0368071
Ar  8.9061114  5.0479636 15.1570214
Ar  7.6961361  7.4368383 17.3436529
Ar  6.0322002  4.3352026 16.9477502
Ar 11.0971583  4.9522290  1.7811932
Ar 10.0806392  5.4724376 18.3597696
Ar  6.9689326 10.3057636 19.9525231
Ar  8.6306445 12.7325707 21.7872747
Ar 10.3022296 13.2040090  2.2954690
Ar  9.1051778 15.3134131 19.1531587
Ar  5.1288292 13.7742832  4.9372889
Ar  9.4154101 12.7995840  5.6112464
Ar 11.8257284 11.2367386  8.6272733
Ar  9.5897178 15.6185697 22.8561945
Ar  2.9010853 13.2208525  7.5273340
Kr  9.3678371  8.2315652  8.1740128
Ar  9.9873022  9.5734765 11.3602989
Ar  8.8274335 12.1504169  9.4423543
Ar  5.9215764 12.4731413 13.2881042
Ar  8.7514502 10.1088588 15.3443268
Ar 10.2040944 11.4913852 19.4092632
Ar  9.1013959 12.8175644 12.8113627
Ar  2.0524412 12.5171593 18.5260568
Ar  6.2395682 13.4646173  1.5229193
Ar 10.6479488 19.0132765  0.1781265
Ar  9.2312610  0.0032024  0.3192223
Ar  7.6502530 18.8234282  1.3697561
Ar  7.3819151 16.0819627  3.4351285
Ar  7.2634668 15.5194280  7.3883314
Ar  8.1487125 18.5161737  6.7705066
Ar  4.4223689 17.8311714  6.4528667
Ar  6.3712130 14.1522832 10.5975985
Ar  7.7531000 16.7641728 13.4325322
Ar  6.5064524 18.3959418  9.8412482
Ar  3.4099177 19.3488660 12.1451865
Ar  6.5325910 13.0644756 17.7144892
Ar  5.0092852 16.3086884 22.6902600
Ar  5.7246138 20.4084081 17.9888299
Ar  3.2641721 18.9533925 20.3247134
Kr 12.1226132  0.8487046  2.1658816
Ar 14.9648306  1.5683423  3.6449071
Ar 14.0874971  3.3467025  0.8820528
Ar 10.7604566  0.3363701  5.7789231
Ar  8.0348379 20.6151313  4.3349303
Kr 13.0016159  2.8730253 12.4727703
Ar 12.0906893  8.0219304  5.4091919
Ar  7.8913639  4.5441823  7.7627286
Ar  9.4350307  1.8410157 13.2227400
Ar 13.7987212  0.5407694 16.0982649
Ar 16.0918482  0.9753610 13.5644377
Ar 12.3924425 22.1839742 10.5311021
Ar 10.2953799  1.2990840 17.9636212
Ar 12.3742101 21.7926545 20.2850158
Ar 12.1364532  3.6532927 16.3691168
Ar 10.1904670  3.0159152 21.3790995
Ar 12.5530193  5.1382939 20.8302140
Ar 14.5730166  5.0451177  3.5686907
Ar 15.7128441  6.3537115 22.3252271
Ar 12.4023122  7.5309501  0.1351128
Ar 11.4056009  3.9890332  6.2473712
Ar 16.3373480  3.6626316 11.0130034
Ar 17.6925292  6.4885627  2.9488414
Ar 15.0737973 13.5745878  9.1849920
Ar 12.2292856  6.3806760 14.3835385
Ar 15.2388452  6.3655938 12.9131836
Kr 14.4322209  9.7679522 11.6315642
Ar 11.3624754  9.0690410 16.6026931
Ar 14.4295251  2.4749645 19.2561707
Ar 14.7139426  6.3679811 17.2972417
Ar 15.3381259  8.6049019 19.8811879
Ar 12.2987163  8.7532628 19.9384189
Ar 12.3316326 11.4945462 22.0097268
Ar 20.8432682 12.2160500  3.5411784
Ar 14.0231700 12.7822608  1.9927572
Ar 11.2069223 17.1562402  3.5169851
Ar 11.9950886  9.8976069  2.5680789
Ar 13.5999005 14.8026595  5.3734033
Ar 17.7228176 16.1377321  6.4206323
Ar 11.1690980 15.3381555  7.5297103
Ar 12.1887606 13.3500751 11.2627405
Ar 15.9610786 13.0909880 12.7103600
Ar  9.7382737 14.4349878 16.0009927
Ar 15.0393595 15.8641367 15.3421079
Ar 12.8274124 12.9643066 15.3402278
Ar 15.7063815 11.6800983 22.2330075
Ar 12.5116756 14.8505160 20.5751248
Ar  7.9645272 17.9302410 20.6657381
Ar 13.2196093 16.5125901  1.1663888
Ar 17.4823019 18.3496547  2.7764633
Ar 14.2232200 20.5810732  1.1765393
Ar 14.6495133 17.7109613  4.0045664
Kr 14.5725568 16.9047242  8.0443751
Ar 18.4622635 13.8334511 10.3340121
Ar 13.4243960 21.3830844  4.5048481
Ar 10.9364138 19.6860825  6.1072999
Kr  9.5724183 16.3421842 10.3280529
Ar 11.1135385 16.9758767 13.9699153
Ar 12.2113280 19.1318058  8.9295936
Ar 13.3385607 19.5005766 16.2418519
Ar  6.8753636 16.4577434 16.9397317
Ar 10.7654557 17.8728157 18.6588338
Ar 14.9772349 17.3035469 18.2697322
Ar  9.1159964 20.0437641 15.7365285
Ar 15.1518587  0.5310226 22.5344764
Ar 20.9337787 22.6335900  5.4129250
Ar 18.5245316  0.2038867 21.1437603
Ar 17.4348865 22.2429543  3.7563118
Ar 15.9809731  3.4378122  6.2699464
Ar 22.6823869  2.7521114  6.3764255
Ar 18.7278396  3.0545462  4.5050805
Ar 19.1057078  4.1765159  8.9415122
Ar 15.9400394 20.4093672  8.1895257
Ar 20.6713640 21.8814825 13.8316688
Ar 19.7413993  2.3817320 12.8159868
Ar 20.6846609  2.1018709 15.7403864
Ar 19.0801770 20.5080246 18.3226221
Ar 18.1272856 19.8486400 21.9360992
Ar 21.5877158  3.6100538 18.4733275
Ar 16.9473031  0.6867723 17.7151381
Ar 15.2028688  9.0818243  1.7168738
Ar 19.5006557  2.7755450  0.8431698
Ar 17.9136601  8.8988411 22.1918653
Ar 18.6222015 10.2831550  2.2478461
Kr 14.1666612  6.3796108  8.0617225
Ar 21.8404730  6.8289030 14.4295097
Ar 17.8235835  6.1820664  6.3772909
Ar 17.3741310  7.1494708  9.9506574
Ar 18.2772031  5.1806177 14.1970176
Ar  2.3462085  5.3719799 14.9020738
Ar 21.8383454  9.0394742 11.3842507
Ar 14.8848172  9.2667051 15.9952677
Ar 18.0844658  4.6207440 17.6610293
Ar 17.4258760  3.7611947 21.3365638
Ar 18.0374074  8.7732756 13.2887311
Ar 18.1311561  8.0390395 17.5318793
Ar 17.8116497 10.8936500 19.3068859
Ar  2.5219469 13.0119085  2.2114994
Ar 20.1482810 12.1614202 22.4509608
Ar 17.4158065 12.9262136  4.8286827
Ar 14.2820313 10.8614817  5.1099470
Ar 15.0889363  9.9939929  8.1359682
Ar 21.9368852  8.7697129  5.5868489
Ar 13.7217027 16.2825273 11.2345897
Kr 17.7446837 10.7737896 10.4958261
Ar 19.5906242 13.4870250 14.0056353
Ar 21.5440551 12.4033795 11.0197893
Ar 14.7887892 19.8054850 11.1445646
Ar 20.6495403  9.5718313 15.5634603
Ar 21.7189673 14.7437404 19.1393143
Ar  0.9475305  8.3796639 16.8474763
Ar 17.9591012 14.7600183 19.2777430
Ar 15.9794521 15.6421598 22.5816466
Ar 18.6495397 14.9661450  2.8268475
Ar 21.0324144 18.7029967  0.6919236
Ar 21.1891026 22.1014762  1.4731193
Ar 19.8091219 12.1560078  7.5357048
Ar 17.4535620 17.2447903 10.6370351
Ar 19.8347293 19.0767051  5.8237805
Ar 17.6275331  0.5496152  7.2289026
Ar 19.9702878 12.9887655 17.1572073
Ar 17.8287336 19.7522781 14.5782317
Ar 18.1706723  0.1719795 10.8940805
Ar 18.0865035 16.3475529 16.3517536
Ar 14.4023702 12.1186482 18.4663653
Ar 21.8629031 17.9274804 17.6362001
Kr  2.9485352 18.1625263 15.6096810
Ar 15.6628287 20.8073316 19.3172773
256
22.876152 22.876152 22.876152
Ar  1.6880947 21.8836246 22.3204028
Ar  4.0124340  2.6147775  2.0709295
Ar 22.2875134  4.6827681  1.2611821
Ar 21.7648266  1.1451970 20.5558700
Ar  1.8026144 22.5868419  4.4156039
Ar  5.8456496 19.9043389 13.9244858
Ar  3.1787705  2.5953257  6.0179205
Ar  2.0834305  0.9838553  9.7823481
Ar 19.3943046 19.7445488  9.4266032
Ar  0.7305929  1.8076661 13.5900228
Ar  5.3750887 22.7375023 12.0533842
Ar  3.4919575  4.2693489 11.7756246
Ar  0.3908157 20.2906371 14.8028098
Ar  0.2285880 22.8475605 16.9209977
Ar  3.0246044  3.4510522 18.7742911
Ar 19.9599017  6.4429527 21.5980836
Ar 21.1868709  7.1115239  2.7090817
Ar  1.5427883  5.7036980  4.8652453
Ar  1.9985228  8.1807662  2.8275521
Ar 22.5196079 10.2296518  1.2317675
Ar 22.1620340  1.8854332  3.1012953
Ar  2.0351851  4.6750644  8.2477449
Ar  8.6879182  9.6863009  3.8462239
Ar  0.1484103  4.3718956 11.8569284
Ar  5.6341033  6.8895711  9.2683994
Ar  5.1591387  7.6635778 14.8296518
Ar  6.8967982  9.6224565 11.4555153
Ar  2.1964461  8.7601121 13.5638636
Ar  1.1935662  5.5518908 20.8496844
Ar  2.4936385  8.6761827 21.2247594
Ar  3.8621873 10.6885538 16.5640195
Ar 21.0307477  7.1618685 18.5958414
Ar 20.9162105 10.2146372 19.5748337
Ar  2.6141318  9.4358601  6.5035557
Ar  1.3729071 11.9058166 21.5645923
Ar 21.6678637 16.1738662  5.4260871
Ar 18.8919820  9.4449861  5.5926518
Kr  5.6498706 10.3765832  7.6311228
Ar  2.3906753 15.9782393  3.9531451
Ar 22.8332569 11.1889088  7.7120514
Ar  1.4385685  7.4436238  9.8735258
Ar  3.5390143 11.0702360 10.9045641
Ar  3.4265071 16.5219835 10.3642878
Ar  0.0837313 15.6566692 12.7587763
Kr  1.0741593 12.0419272 13.5794899
Ar  4.6885297 12.7393775 21.0920253
Ar  3.9619211 15.2167006 18.3314162
Ar 19.8465448 17.6073122 20.7192069
Ar 22.6063048 15.4333465  1.8959774
Ar  4.2200120 19.2065389  3.2760142
Ar  5.9388967 22.8049625  2.8898235
Ar  1.0468917 19.5341681  5.2297819
Kr  1.1942083 16.5921607  7.7185310
Ar 21.2710396 16.1849612  9.7375882
Ar  5.2074339 21.4412734  6.5082388
Ar 22.1897475 22.5785172  8.6887470
Ar 22.8460342 19.8038342 10.5094590
Ar  3.4503453 15.0528211 14.1533744
Ar  2.8800187 20.1899096  8.6804316
Ar  1.1745132 16.9580988 20.5701039
Ar  0.1015645 14.2287207 15.8736299
Ar  1.5141361 19.2260444  1.4244328
Ar  3.2370446 21.7604356 16.5400442
Kr 21.9807807 20.6273709 20.0180405
Ar  4.6821782  0.4897366 21.5835735
Ar  7.3258821  2.9471902  1.5062373
Ar  6.2166506  3.3821330 20.3523363
Ar  4.6648198  5.6108110  0.1960081
Ar  7.9935436  1.2295767  5.0032217
Ar 14.1819212  0.6998377  7.6193572
Ar  6.5765500  4.5991869  4.3691153
Ar  4.8211370  2.9529970  9.2166401
Ar  6.5637962  3.2338797 13.4272246
Ar  9.3943488 19.5869015 11.8187593
Ar  8.0404226 21.3997181  7.9445891
Ar  3.8680506  1.9383743 14.9717641
Ar  1.4975091  2.6976653 22.2757609
Kr  8.1525538 22.1008694 19.8432903
Ar  7.8454313  0.3699885 15.5406611
Ar  4.3926450  6.2319386 19.3909596
Kr  6.1022733  9.9304721  0.4700753
Ar  7.2674379  7.0681046 21.6819865
Ar  9.5538466  9.4398123 22.2220086
Ar  5.5583332 10.5938607  3.9417864
Ar  4.7308890  7.0983212  5.4679380
Ar  8.3193867  1.2674329 10.3904335
Ar  7.8421304  6.7580525  2.1084455
Ar  7.5222414  6.6038211 12.1289677
Ar 10.8109661  5.4428549 10.0615850
Ar 11.4115278 21.8284472 13.7165497
Ar  9.0257902  5.1835310 15.1461311
Ar  7.5003847  7.7426990 17.5004575
Ar  6.0493036  4.4863782 16.9925995
Ar 11.2231539  4.8835703  1.7080184
Ar  9.9487316  5.6760212 18.3978815
Ar  7.3834743 10.5812544 19.9248460
Ar  8.5570608 12.8365269 21.7999316
Ar 10.0125739 13.1832420  2.5749588
Ar  8.7881627 14.8447290 19.1723699
Ar  4.9779209 13.8118250  4.8410814
Ar  9.4252495 12.4583549  5.8717184
Ar 11.7881154 11.3526940  8.6583728
Ar  9.7537949 15.7180802 22.7006641
Ar  2.7749938 13.3200849  7.3339444
Kr  9.4177221  8.1080799  7.7820492
Ar 10.7129153  9.5847218 11.5664967
Ar  8.4887552 12.5192328  9.0209923
Ar  5.6966762 12.4773382 13.4006374
Ar  8.4882754  9.8772881 14.7134035
Ar 10.4820181 11.4840371 18.9912756
Ar  9.5460019 12.8230637 12.9920815
Ar  1.9344278 12.2927784 18.4939934
Ar  6.6137004 13.5481436  1.1076574
Ar 11.1194343 18.8037600  0.3526437
Ar  8.9984054  0.1254004  0.7214253
Ar  7.6451025 19.0898773  1.2688507
Ar  7.1856859 16.6018917  3.3904191
Ar  7.2787496 15.2437911  7.2750215
Ar  8.3399523 18.3515658  7.1378152
Ar  4.6071322 17.8703677  6.5109691
Ar  5.9778824 14.3574153 10.2233264
Ar  8.2224280 16.4876791 13.3758432
Ar  6.6612272 18.5266725 10.1310981
Ar  2.8297450 19.5145000 12.1249241
Ar  6.6942907 13.0404435 17.4221774
Ar  4.6935870 16.6835347  0.1924271
Ar  5.6358545 19.7181776 18.2279424
Ar  3.6581467 19.2604365 20.6596677
Kr 11.8440805  0.6252981  2.3792698
Ar 15.0149226  1.6390871  3.6827663
Ar 13.9873459  3.4610037  0.7543559
Ar 10.8653017  0.3670233  5.6880777
Ar  8.3162291 20.4237479  4.1826417
Kr 12.9512166  2.8065458 12.8265224
Ar 12.3678653  7.8850188  5.3794763
Ar  7.4382861  4.3150290  7.6462060
Ar  9.8752732  1.6991779 13.0457582
Ar 13.5894083  0.4611778 16.2888980
Ar 16.2173200  1.1309486 13.4819427
Ar 12.6323042 22.5028183 10.3832226
Ar 10.7443841  1.2801213 18.2075985
Ar 12.3125995 21.9122777 20.3571592
Ar 11.9854772  3.3951843 16.1617562
Ar 10.0052609  3.1050584 21.9895231
Ar 12.7708211  5.0043973 20.4347275
Ar 14.6451082  4.9340264  3.8647686
Ar 15.7750337  6.4952317 22.5991745
Ar 12.3531245  7.6248368  0.3976587
Ar 11.5220471  3.5171555  6.1485148
Ar 16.2133384  3.6999454 10.6878721
Ar 17.9116851  6.8080794  2.7170422
Ar 14.8852355 13.2761270  9.2386664
Ar 12.3337008  6.3452363 14.5493648
Ar 15.4826809  6.3887177 12.8063219
Kr 14.3973128  9.7380758 11.6275859
Ar 11.5716708  9.1847659 16.4460608
Ar 14.1128957  2.2958816 19.2687612
Ar 14.5049856  6.2222903 17.2766069
Ar 15.3613383  8.4237380 19.5722754
Ar 11.8762537  8.6169798 20.1886599
Ar 12.3636741 11.6675819 21.7424438
Ar 20.8979057 12.2735738  3.9056307
Ar 13.9500006 12.7055022  1.8541888
Ar 11.0659005 17.1255223  3.7806506
Ar 12.0398749  9.9789811  2.4727411
Ar 13.8818423 14.7150652  5.2448859
Ar 17.6033427 15.9889252  6.0447663
Ar 11.1287165 15.0582637  7.3867536
Ar 12.2053407 13.6350302 11.3525610
Ar 15.8117279 13.3209534 12.9877254
Ar  9.7341962 14.5854772 15.6768271
Ar 14.8034097 15.9303426 15.1790471
Ar 12.9152411 12.7850975 15.4919249
Ar 16.2738680 11.9360614 22.0217024
Ar 12.4222834 14.9605227 20.4160372
Ar  7.7753163 17.9363885 20.8746230
Ar 13.4419761 16.6730604  1.1886550
Ar 17.3904850 18.5027956  2.7370580
Ar 13.7799695 20.4250987  1.4884501
Ar 14.4377793 17.6484713  4.1622839
Kr 14.7558946 16.9816250  8.0417947
Ar 18.3708952 14.2535560 10.4049679
Ar 13.9647903 21.2505078  4.5218472
Ar 11.0981672 20.2027146  5.8385596
Kr  9.6422678 16.4001744 10.3227317
Ar 11.6657023 16.9241455 14.0600296
Ar 12.3760458 19.4927668  9.2549984
Ar 13.2189848 19.1133875 15.9123860
Ar  6.6507213 16.5087205 16.9433727
Ar 11.0668312 18.5490851 18.5415432
Ar 15.0019114 17.1435665 18.6496575
Ar  9.2865791 19.6877037 16.0047339
Ar 15.0017791  0.2662662 22.6365548
Ar 20.5122199 22.3753720  5.4467885
Ar 18.1120452 22.8245119 21.0834366
Ar 17.7771176 22.2073312  4.1311451
Ar 15.9209443  3.6644513  6.5645897
Ar 22.5396323  2.4695923  6.6338799
Ar 19.0801504  3.0063390  4.5333609
Ar 19.4927693  4.0409709  9.3276943
Ar 15.9052224 20.2878210  7.7617569
Ar 20.2037164 21.9451750 14.0226752
Ar 19.3506237  2.5200970 12.3276117
Ar 20.8296681  2.3215812 15.5225977
Ar 19.0394196 20.0659894 17.6922697
Ar 17.8155694 19.5935247 22.2578882
Ar 21.7063648  3.7265245 18.5611455
Ar 17.1395702  0.6289568 17.9052244
Ar 15.2716236  8.6585926  1.9034264
Ar 19.5799210  2.7172957  1.0073542
Ar 18.1829487  8.7722184 22.0694254
Ar 18.7247743 10.2538222  2.1272667
Kr 14.2395908  6.3965981  7.9191530
Ar 22.1366181  6.5405570 14.3095924
Ar 17.4939918  6.5291501  6.6391208
Ar 17.5409777  7.0231100  9.9799600
Ar 18.8753499  5.2357516 14.6037334
Ar  2.4142374  5.4664818 15.0433210
Ar 21.9422090  9.2684881 11.3960282
Ar 14.9539806  9.4525372 15.7812153
Ar 18.1048497  4.7510608 17.9707376
Ar 17.3898024  3.7474450 21.0619726
Ar 17.7381396  8.6908149 13.3723733
Ar 17.8829536  8.1742669 17.1103877
Ar 17.5572131 11.2230980 19.0758907
Ar  2.4535245 13.0839869  2.1811426
Ar 20.7540239 12.3790416 21.9102559
Ar 17.5147351 12.5984638  4.9915971
Ar 14.5726813 10.9050975  4.8767124
Ar 15.6242519  9.8951276  8.1168313
Ar 22.1878133  8.4165313  5.8054578
Ar 13.7517224 16.5176472 11.2356539
Kr 18.0714270 10.6045331 10.7351031
Ar 19.4029543 13.8465915 13.8624562
Ar 21.2438542 12.6632802 10.8813657
Ar 14.8731351 19.8433061 11.5165898
Ar 20.7916840 10.1628911 15.4210637
Ar 21.4490173 14.4453948 19.4240730
Ar  1.1177466  8.3684409 17.0460562
Ar 17.9680500 14.6375853 19.5118565
Ar 16.3572037 15.1168387 22.3020197
Ar 18.8595269 14.8467546  2.6715203
Ar 21.0655809 18.7303007  1.0631862
Ar 20.6015427 22.1259378  1.4990908
Ar 19.6408710 12.1240391  7.5656004
Ar 17.1902928 17.0717215 10.5931815
Ar 19.6050405 19.0376995  5.8654744
Ar 17.4973750  0.9395501  7.1498306
Ar 19.9771945 12.5157552 17.1001831
Ar 17.6420631 19.9205723 14.7065731
Ar 17.6719657 22.8135994 10.8108635
Ar 18.6465227 16.5932335 16.8092351
Ar 14.1565648 11.8949303 18.6402790
Ar 21.9415678 17.9239153 17.3503985
Kr  3.1069853 18.3007356 15.7832222
Ar 15.9182759 20.6874356 19.2870926
256
22.876152 22.876152 22.876152
Ar  1.9789069 21.6557954 21.8445658
Ar  3.9991385  2.7913542  2.1314324
Ar 22.2276979  4.4474281  1.4907107
Ar 21.5245158  0.9923089 20.5767875
Ar  1.7969922 22.5149765  4.5060298
Ar  5.9176376 19.6869059 14.3602331
Ar  3.3320835  2.3792106  5.9252836
Ar  1.9750311  0.8718249 10.0484384
Ar 19.2825165 20.0108755  9.2582961
Ar  0.7302194  1.2830657 13.4986537
Ar  5.3808646 22.6037873 11.7797445
Ar  3.1790605  4.4904438 11.9614718
Ar  0.4285547 20.2565139 14.4850997
Ar  0.2512629  0.2095707 16.4471882
Ar  2.7886160  3.2168012 19.1474046
Ar 20.4853429  6.4300738 21.6555841
Ar 21.2550768  7.5897967  2.7518135
Ar  1.2194887  5.5934249  5.0987509
Ar  1.7068770  8.1213597  2.6100740
Ar 22.4588941 10.0503568  1.0014176
Ar 22.7547065  1.5913321  2.9634803
Ar  1.5915353  4.5179110  8.1898398
Ar  8.7551263  9.7905516  3.6884525
Ar 22.6399313  4.3512174 11.5012544
Ar  5.8004173  7.0738745  9.1212466
Ar  5.2561933  7.6642844 15.1349117
Ar  6.9188358 10.1165048 11.4614930
Ar  2.2189305  8.5018690 13.3617156
Ar  1.1181575  5.6798881 20.8860312
Ar  2.6551991  8.8402738 21.3806269
Ar  3.6705732 10.8338833 15.9556311
Ar 20.9435353  6.9522305 18.1214457
Ar 20.9741993 10.1119125 19.7037242
Ar  2.3674897  9.3842774  6.5852542
Ar  1.4260522 11.7363067 21.6129556
Ar 21.6739686 15.7230778  5.0715757
Ar 18.9321204  9.4465759  5.5540026
Kr  5.7326570 10.4953537  7.6381955
Ar  2.0437778 16.2341014  3.8891681
Ar 22.4935764 11.2708177  7.9566480
Ar  1.5346409  7.5054538 10.1921906
Ar  3.5865867 11.1248241 10.9166081
Ar  3.5181401 16.5973817 10.4684257
Ar  0.2159498 15.7773254 12.5953573
Kr  1.1599940 11.9937032 13.5569375
Ar  4.7960138 13.0412031 21.0827097
Ar  3.7185858 15.5523673 18.3538197
Ar 19.5506209 17.5077438 20.6596851
Ar 22.2446013 15.4575329  1.7461071
Ar  4.5199391 19.3917741  3.4416448
Ar  5.9741579 22.8049858  2.7227416
Ar  0.7226687 19.4300369  5.6820136
Kr  1.1058233 16.5153447  7.6323693
Ar 21.2061924 15.9829214  9.5968566
Ar  4.7045269 21.3933363  6.4760111
Ar 21.8263028 22.5854805  8.7904478
Ar 22.6806908 19.9853762 10.3531543
Ar  3.5202672 15.1584323 14.5538283
Ar  2.6474262 20.1803103  8.8490124
Ar  1.2594962 17.2601276 20.5466296
Ar 22.7040835 14.1610605 16.5029778
Ar  1.7069367 19.3838899  1.4840864
Ar  3.3928004 21.7334711 16.3058046
Kr 21.8908351 20.3486371 19.7522498
Ar  4.5426854  0.9103036 21.2464781
Ar  7.0468946  3.4959533  1.3506016
Ar  6.4028588  3.5250372 20.7899723
Ar  4.3866441  5.6201309  0.0530385
Ar  8.3307910  1.5416125  4.9319223
Ar 13.8179788  0.8367539  7.4941195
Ar  6.4374438  4.3905704  4.5169157
Ar  5.0236956  2.6068059  9.4451288
Ar  6.3754659  3.5031684 13.2505621
Ar  9.6396175 19.6715549 11.4701265
Ar  8.0874294 21.4460081  8.0364417
Ar  3.5802690  1.9690446 15.2336969
Ar  1.4835758  2.6268980 22.6691629
Kr  7.9946434 21.7894392 19.6740987
Ar  7.4857142  0.5104124 15.2192126
Ar  4.2033040  6.4489716 19.3758970
Kr  6.0125565  9.8690370  0.2887196
Ar  7.2991981  6.8817622 21.3185661
Ar  9.9788217  9.7729546 22.7493098
Ar  5.3916852 10.8110605  4.0270409
Ar  4.8753878  7.2865358  5.4069155
Ar  8.5289635  1.4839286 10.0605119
Ar  7.6127853  6.8150046  2.0430998
Ar  7.3339255  6.5740693 12.5262921
Ar 10.9383128  5.2557093  9.6620811
Ar 11.3788650 21.0831747 13.5678834
Ar  9.1310555  5.3134638 14.9996974
Ar  7.1297270  8.2178693 17.6334499
Ar  6.0894434  4.5506723 16.8287744
Ar 11.0436828  4.7285045  2.0647976
Ar 10.0203067  5.6990832 18.6445684
Ar  7.2608131 10.5356555 19.4779713
Ar  8.9948656 12.7491160 21.7993202
Ar  9.7717356 13.1983118  2.7184725
Ar  8.7076175 14.6124638 19.1780508
Ar  4.9947715 13.9802068  4.6655807
Ar  9.4594195 12.0379356  5.9704137
Ar 11.8695660 11.3768665  8.5550819
Ar  9.9738418 15.9384487 22.7312262
Ar  2.6657169 13.3710692  7.2778143
Kr  9.4318586  8.0109247  7.3882493
Ar 11.2539375  9.5327498 11.8255943
Ar  8.2664523 12.6185663  9.0329889
Ar  5.5282040 12.4289968 13.6311920
Ar  8.1571493  9.6632599 14.2316769
Ar 10.7175908 11.6664017 18.2203812
Ar  9.6662903 12.6120882 13.0391295
Ar  1.5274275 12.2095427 18.2662997
Ar  6.4896961 13.8746841  1.3351752
Ar 11.1654716 18.7650492  0.2741657
Ar  8.5701660 22.7460174  0.8785685
Ar  7.5156640 19.4882998  0.9105222
Ar  6.9709668 16.9425459  3.5307074
Ar  7.1457002 14.7763929  6.9104836
Ar  8.7251954 18.1162017  7.2919916
Ar  4.8660506 17.7903653  6.6126868
Ar  5.7121295 14.3296412 10.0287733
Ar  8.2864617 16.3247743 13.4354884
Ar  6.5333995 18.6517088 10.4491351
Ar  2.4718204 19.7061545 12.2759342
Ar  6.7524615 12.7531749 16.9274868
Ar  4.3753835 17.0339976  0.6026325
Ar  5.9204455 19.1402510 18.3079196
Ar  4.0557246 19.5328831 21.2158573
Kr 11.6414815  0.4440864  2.5235029
Ar 15.2467249  1.5951487  3.7974713
Ar 14.0526129  3.5028932  0.3717821
Ar 11.4206220  0.3601571  5.8959617
Ar  8.4295374 20.3737462  4.0878099
Kr 13.2061046  2.8447315 13.0430958
Ar 12.5488545  7.7906489  5.2103574
Ar  7.2856671  4.1234206  7.5852602
Ar 10.0392606  1.7060413 13.2542053
Ar 13.5577248  0.1587211 16.4222784
Ar 16.2381820  1.3208370 13.6826974
Ar 12.7507844  0.2438128 10.5464213
Ar 10.8786960  1.1584950 18.6091209
Ar 12.2976346 21.9071078 20.5427210
Ar 11.8784615  3.4260312 16.0303629
Ar  9.7632464  3.0950548 22.3611895
Ar 12.9890962  5.1390778 20.1880952
Ar 14.5830292  5.2766401  4.0271985
Ar 15.7667702  6.1894855 22.5903242
Ar 12.4823504  7.4951659  0.4594592
Ar 11.7674170  3.6238400  6.1101582
Ar 16.0218161  3.6252274 10.2996348
Ar 18.0278686  6.8890230  2.5479357
Ar 14.8354518 12.9894811  9.2073904
Ar 12.4065012  6.4614198 14.4812996
Ar 15.5101990  6.1908538 12.7491562
Kr 14.4064019  9.7374704 11.6441215
Ar 11.8130441  9.2457190 16.3898246
Ar 13.9997987  1.9372174 19.2884045
Ar 14.2931668  5.7816072 17.1968725
Ar 15.5658264  8.3866901 19.4371911
Ar 11.5114634  8.2810055 19.8835353
Ar 12.5012973 11.8943707 21.7718035
Ar 21.1760508 12.3976544  4.4087960
Ar 13.9860960 12.8632769  1.7501355
Ar 10.6182392 17.0666788  4.1700998
Ar 11.8615783 10.3308321  2.6315906
Ar 14.1328964 14.1092356  5.1822390
Ar 17.5481059 15.8513883  5.6528875
Ar 11.1473155 14.8281242  7.2335987
Ar 12.2989427 13.7810030 11.4114717
Ar 15.6524632 13.4643594 13.1974719
Ar  9.7942665 14.6956553 15.8556145
Ar 14.7697097 15.9634627 15.0652452
Ar 12.9593452 12.5916156 15.5344308
Ar 16.7139479 11.8429108 21.9892623
Ar 12.3623866 15.1067105 20.2124558
Ar  7.5174044 17.9962394 20.9308072
Ar 13.8578472 16.4850790  0.8384666
Ar 17.4803236 18.6674177  2.7656436
Ar 13.6820257 20.2175928  1.5663723
Ar 14.3888943 18.0608916  4.5398500
Kr 14.9016794 17.0073454  7.8483174
Ar 18.2491267 14.3275828 10.3355879
Ar 14.6600326 21.2816472  4.9167869
Ar 11.4854085 19.9209977  5.8080357
Kr  9.7893367 16.3841827 10.2148581
Ar 11.8638524 16.7540931 13.9033827
Ar 12.3165837 19.5567549  9.3938772
Ar 13.3409266 19.1182118 15.7279924
Ar  6.6133067 16.6693148 16.6464650
Ar 11.4580059 19.1230882 18.7325547
Ar 15.0576790 16.9733721 19.1034556
Ar  9.2945595 19.3461321 16.0622525
Ar 14.8732181  0.0342496 22.6834347
Ar 20.7405827 22.1907232  5.7326686
Ar 17.9191034 22.6975048 21.1280071
Ar 17.5513597 22.0284978  4.0879145
Ar 15.7653372  3.6894052  6.9891163
Ar 22.3307537  2.2917779  6.8766290
Ar 19.3853228  3.0074329  4.6133391
Ar 20.0116786  4.0276020  9.3143178
Ar 16.0058542 20.2899836  7.3659832
Ar 19.7971349 22.1761241 14.1200498
Ar 19.0019766  2.5651154 12.0268815
Ar 20.8763657  2.5420290 15.4421210
Ar 19.1400833 19.8318298 17.3212136
Ar 17.2785994 19.4693182 22.6386159
Ar 21.9032770  3.9869831 18.5532129
Ar 17.4001407  0.7679360 17.8371728
Ar 15.2362607  8.7340874  2.4181004
Ar 19.4004192  2.6010734  1.0133571
Ar 18.1291292  9.2757117 21.8165336
Ar 18.7681413 10.3211909  2.0729767
Kr 14.2010203  6.4456153  7.9403763
Ar 22.3290237  6.4180451 14.2622916
Ar 17.4120414  6.9448055  6.7139699
Ar 17.7271819  6.9441305 10.1260661
Ar 19.3311198  5.3859127 14.9456266
Ar  2.5571275  5.4097197 15.2970510
Ar 21.8997702  9.5126965 11.5299921
Ar 15.0212147  9.8161612 15.4463794
Ar 18.1507618  4.8647278 18.1433365
Ar 17.2481140  3.5129729 20.9713966
Ar 17.6644731  8.5148184 13.8284474
Ar 17.7683202  8.2987513 16.7748429
Ar 17.2492617 11.3664681 18.7008652
Ar  2.4415872 12.9658386  2.0658979
Ar 21.0792168 12.6278904 22.0590974
Ar 17.4407490 12.2941390  5.1769009
Ar 14.6737611 10.8564530  4.6601538
Ar 16.1767829  9.7688083  8.0418316
Ar 22.4124130  8.0189402  6.0729448
Ar 13.7839910 16.8569642 11.4869040
Kr 18.4436033 10.5521264 10.8009947
Ar 19.2420463 14.2346630 13.6854986
Ar 21.2095470 12.8817477 10.7764733
Ar 15.1127304 19.9798086 12.0689265
Ar 21.1651961 10.1502467 14.8322920
Ar 21.5005089 14.5926575 19.4807770
Ar  1.3211087  8.3830846 17.3004690
Ar 18.0453373 14.4657276 19.5679495
Ar 16.5586322 15.1351195 22.4305058
Ar 19.1055752 14.9750419  2.2804332
Ar 20.9034649 18.6456306  1.4484709
Ar 19.9636835 22.1273957  1.4650298
Ar 19.3818591 12.2683053  7.7732665
Ar 16.8584171 17.4767956 10.7091557
Ar 19.2696888 19.0671181  5.8919034
Ar 17.8620002  1.0415341  7.2335844
Ar 19.7743599 12.5731550 17.2072816
Ar 17.1278746 19.9546282 14.6178339
Ar 17.2110517 22.3812291 10.4262442
Ar 19.1449084 16.7135062 17.0807361
Ar 13.9305253 11.6720118 18.8335938
Ar 22.1757511 17.8821172 17.0506656
Kr  3.2712622 18.3128101 16.0170979
Ar 15.9785496 20.4180260 19.3058419
256
22.876152 22.876152 22.876152
Ar  1.6593784 21.9678224 21.4551818
Ar  3.5884202  2.9028167  2.4273524
Ar 22.1648917  4.6216957  1.6719256
Ar 21.2715445  0.9058911 20.6676850
Ar  2.0103736 22.1692385  4.6916295
Ar  6.2065995 19.5714827 14.6267883
Ar  3.5973658  2.1950072  5.8274984
Ar  1.9686673  0.7894997 10.2795428
Ar 19.2253751 20.1367924  9.0944854
Ar  0.6872813  0.7954295 13.0420456
Ar  5.3837553 22.4277705 11.5456518
Ar  2.9339601  4.7430687 12.1339415
Ar 22.8577336 20.2736593 14.4676899
Ar  0.1090616  0.4072779 16.5396691
Ar  2.4661614  2.7964623 19.3088292
Ar 20.9372984  6.3170976 21.8072131
Ar 21.2258224  7.9732612  3.0225190
Ar  1.1401499  5.0670548  4.9698920
Ar  1.7983807  8.0000646  2.4435435
Ar 22.3186337 10.0208167  0.6546499
Ar  0.1807530  1.3166470  2.7834935
Ar  1.2942413  4.4217807  8.4743806
Ar  8.6374224  9.6508056  3.4383306
Ar 22.2991237  4.2952858 11.2449127
Ar  5.9157514  7.2395143  9.0051648
Ar  5.0603289  7.6210013 15.0755161
Ar  6.7290098 10.5458918 10.9003632
Ar  2.3210605  8.2934139 13.3145239
Ar  0.9896243  5.9400800 20.9645205
Ar  2.9535719  8.7238742 21.5896271
Ar  3.5461017 10.7701713 15.4884476
Ar 20.8738640  7.1573551 17.4993918
Ar 21.1080147  9.9494408 19.7169526
Ar  2.3605645  9.5170839  6.7230845
Ar  1.4886795 12.0274942 21.7565122
Ar 21.4337764 15.4919681  4.7955305
Ar 19.3444190  9.4946544  5.3794901
Kr  5.8304148 10.6359204  7.6485858
Ar  1.8701416 16.5751669  3.8610004
Ar 22.4318798 11.2417785  8.1798435
Ar  1.6783046  7.5208834 10.2539356
Ar  3.5165418 11.1623451 10.8027227
Ar  3.1238540 17.0913470 10.6708738
Ar  0.3853690 15.9065160 12.5017382
Kr  1.2215904 12.0422291 13.4963559
Ar  4.9310874 13.3591858 21.0325670
Ar  3.4198973 15.7401736 18.4945817
Ar 19.2987032 17.4239349 20.6170959
Ar 22.2894502 15.4224800  1.3137134
Ar  4.8342290 19.6781521  3.6257526
Ar  5.6396353 22.7439960  2.7841326
Ar  0.3206139 19.3471951  6.0602171
Kr  1.1513731 16.4772252  7.5953906
Ar 20.9560921 16.0342267  9.4225072
Ar  4.3884269 21.4818351  6.3661465
Ar 21.2559816 22.7924719  9.0970949
Ar 22.1240683 19.7127071 10.4763343
Ar  3.5524802 15.1212673 14.8766457
Ar  2.6421238 20.1267938  8.8578999
Ar  1.2986002 17.5411403 20.5515329
Ar 22.4707469 14.4526731 16.3861858
Ar  1.7219478 19.4429433  1.6070209
Ar  3.7685041 21.6704048 16.1736868
Kr 21.8253445 20.0636258 19.5179602
Ar  4.4769973  1.0781577 21.0330284
Ar  7.0479326  3.9242324  1.1988844
Ar  6.7052514  3.7621150 20.9309921
Ar  3.9870894  5.6818698 22.8433310
Ar  8.4481746  1.8542100  4.7992096
Ar 14.3513397  1.0429900  7.7211760
Ar  6.1251234  4.2297048  4.4471863
Ar  5.1127926  2.1915260  9.7235873
Ar  6.1621687  3.5057765 13.0855265
Ar  9.4944072 19.6942892 10.9425585
Ar  8.1681389 21.6193148  8.1472832
Ar  3.4464251  2.1800529 15.4865812
Ar  1.5470207  2.3091285 22.8211784
Kr  7.8718067 21.5196854 19.5473865
Ar  6.9990265  0.5671641 14.9999479
Ar  4.1803990  6.7976384 19.2224174
Kr  5.9177512  9.8419961  0.1253877
Ar  7.5003605  6.8424350 20.8429483
Ar 10.0595547  9.7892912  0.4556402
Ar  5.1441893 10.7776090  3.9765100
Ar  5.0315396  7.5256255  5.3413321
Ar  8.7267188  1.7286680  9.6814953
Ar  7.4206231  6.9956566  2.0180149
Ar  7.1529825  6.7311672 12.6101123
Ar 11.0396088  5.0320617  9.3052554
Ar 11.6699541 20.6788631 13.7450897
Ar  9.2399059  5.4063699 14.9868397
Ar  7.0744252  8.0691133 17.6304037
Ar  6.1221977  4.5484688 16.6977433
Ar 10.8513258  4.6279777  2.7268100
Ar  9.7855790  5.4067668 18.6964360
Ar  7.1681579 11.0657859 19.6633671
Ar  9.3566738 12.6217916 21.8912878
Ar  9.5540455 13.3328591  2.7594790
Ar  8.5824116 14.7067145 19.1060295
Ar  4.6863077 14.3634862  4.2994361
Ar  9.5589907 11.6379085  6.0169867
Ar 11.9078694 11.2907160  8.4457204
Ar  9.9805727 15.7169798 22.8173478
Ar  2.6197282 13.2590464  7.2713043
Kr  9.4188558  7.9335018  6.9987033
Ar 11.0485695  9.3909663 12.1321268
Ar  8.6060482 12.4334025  9.4455699
Ar  5.5106598 12.5324307 13.5723880
Ar  8.1318575  9.3797831 14.4425122
Ar 10.5320005 12.0436209 17.6577206
Ar  9.5382507 12.3366873 13.0949244
Ar  1.2779834 11.9183040 18.1905366
Ar  6.2791634 14.2376132  1.6063935
Ar 10.8639844 19.1199572  0.0012464
Ar  8.3977919 22.6916857  0.6841933
Ar  7.2386281 19.7708814  0.7021149
Ar  6.8464208 17.1380875  3.7035581
Ar  7.2193917 14.7144676  6.4703012
Ar  9.0530178 17.7869294  7.2932655
Ar  5.1055760 17.6303606  6.7944989
Ar  5.5824128 13.9998731  9.9962606
Ar  8.0913708 16.3213634 13.2912600
Ar  6.2409821 18.7526958 10.7233645
Ar  2.8589774 19.7886601 12.3395382
Ar  6.7993954 12.4890226 16.4291339
Ar  4.1071979 17.1741204  1.1130760
Ar  5.9679507 19.1431088 18.3045164
Ar  4.8166381 19.5169113 21.6152699
Kr 11.5392303  0.2996856  2.5285422
Ar 15.4083840  1.7915530  3.8470854
Ar 13.9921210  3.2869915  0.0789645
Ar 11.2984458 22.7011581  5.9742349
Ar  8.5144420 20.4042096  4.1169183
Kr 13.6612681  3.0378599 13.0805191
Ar 12.5124792  7.8780939  4.9146572
Ar  7.4643265  4.0291947  7.7350949
Ar  9.8567716  1.6483014 13.5084740
Ar 13.5799966 22.6014502 16.3915785
Ar 16.3737826  1.3150091 14.0604013
Ar 12.7313459  0.7201132 10.9215470
Ar 10.5622184  1.2223866 18.8277229
Ar 12.3791261 21.7710559 21.0537984
Ar 11.6402101  3.4111440 16.3271819
Ar  9.7281353  2.9295467 22.3510847
Ar 13.2222964  5.2820514 20.2410337
Ar 14.6053546  5.5703815  4.0294614
Ar 15.9221647  6.1537110 22.4975261
Ar 12.6951482  7.2680482  0.4724414
Ar 12.0886596  4.2585124  6.1054381
Ar 15.8121925  3.4670631 10.1928141
Ar 18.0779691  6.7011669  2.4223390
Ar 14.9882628 12.7788976  9.1149860
Ar 12.4444150  6.6576176 14.1274309
Ar 15.3925837  5.8280765 12.7064518
Kr 14.7675801  9.7746271 11.6206418
Ar 11.9566715  9.1246206 16.2566074
Ar 14.2184588  1.6262741 19.4357204
Ar 14.3163430  5.3716469 17.0265591
Ar 15.5631456  8.2634150 19.4701294
Ar 11.3922401  8.2935505 19.5570195
Ar 12.5909808 12.0760535 21.9119516
Ar 21.4648186 12.2672571  4.8632669
Ar 14.2080754 13.1854641  1.7241249
Ar 10.1670497 16.8595053  4.4216190
Ar 11.8654406 10.7023255  2.9284000
Ar 14.3282264 13.8177445  5.1989195
Ar 17.5589441 15.7322391  5.2244277
Ar 11.2372070 14.6592048  7.0672425
Ar 12.4771561 13.8741534 11.4241170
Ar 15.5837600 13.3354844 13.1618253
Ar 10.0087359 14.7146571 16.2674131
Ar 15.0447769 16.0874859 15.2662565
Ar 12.9133018 12.5876558 15.4413017
Ar 16.6254639 12.2205752 22.1927718
Ar 12.2386465 15.2148227 19.9774152
Ar  7.4611776 17.7287070 20.9010099
Ar 13.9242585 16.4229634  0.6624383
Ar 17.5421446 18.6248853  3.1760291
Ar 14.0225759 20.1539888  1.8755025
Ar 14.3640783 18.1855825  4.6787239
Kr 14.9443309 16.8996122  7.7019043
Ar 17.8181610 14.3778640 10.2647885
Ar 14.4363075 21.6567438  4.8796635
Ar 11.8855551 19.4805657  5.9320963
Kr  9.9823924 16.2557255 10.1091313
Ar 11.2940614 16.4991730 13.8011838
Ar 12.4008856 19.5916410  9.3911283
Ar 13.7151649 19.3691750 15.7940055
Ar  6.7731570 16.3035255 16.0667470
Ar 11.8565287 19.4468866 19.0098984
Ar 15.2121934 16.8060269 19.5181323
Ar  9.1984355 19.0117422 15.9910757
Ar 14.8001586 22.8021764 22.7963021
Ar 21.1159831 22.0178872  5.7353711
Ar 17.9409755 22.6142575 21.2468686
Ar 17.7540440 21.9020222  3.8785269
Ar 15.8244601  3.6128594  6.9348598
Ar 22.1343646  2.2733700  6.8222409
Ar 19.6762241  3.0397108  4.6876843
Ar 20.4059029  4.2202711  8.6798602
Ar 16.4895207 20.1948294  7.6316066
Ar 19.4800994 22.4582479 14.1862895
Ar 18.7275873  2.4502552 12.0847878
Ar 20.8731152  2.6770101 15.3445291
Ar 19.3073548 20.1384188 17.1750818
Ar 16.6553545 19.4753880 22.6129461
Ar 22.2189905  3.8552842 18.5718395
Ar 17.6565693  0.9670735 17.6169542
Ar 15.1945797  8.5947370  2.5176378
Ar 19.0596378  2.5263303  0.9335244
Ar 18.4279630  8.9598870 21.3966414
Ar 18.8412118 10.5762458  2.1272909
Kr 14.0181965  6.6200079  8.1598625
Ar 22.6085755  6.4852822 14.2307374
Ar 17.3934603  6.8332678  6.6150586
Ar 17.9583464  6.8629866 10.3563906
Ar 19.3709943  5.6756806 15.1221022
Ar  2.7293410  5.3001151 15.7148060
Ar 21.9391551  9.6260207 11.4126508
Ar 15.1112235 10.1985559 15.1234311
Ar 18.1474355  4.9934019 18.1708703
Ar 17.0356919  3.0688277 21.1072889
Ar 17.8445481  8.4914204 13.4564260
Ar 17.8872377  8.2989099 17.2220307
Ar 16.9096751 11.1950056 18.2523285
Ar  2.4479514 12.8182144  1.9640965
Ar 21.0125258 12.8635585 22.7301548
Ar 17.4379029 12.4396439  5.0836498
Ar 14.3668701 10.7017075  4.9204460
Ar 16.6054843  9.8181970  7.9799469
Ar 22.0314455  7.8405105  6.5106993
Ar 13.8261856 17.1310813 11.4008860
Kr 18.7504332 10.5154899 10.9010916
Ar 19.1454167 14.6230692 13.6150323
Ar 21.4626382 12.9868041 10.9077752
Ar 14.8123509 20.3952928 12.2238559
Ar 21.4505498  9.9827158 14.5108014
Ar 21.6785867 15.1985092 19.5872021
Ar  1.5242425  8.3938043 17.5635404
Ar 18.1178924 14.3624087 19.4924526
Ar 16.9326787 15.4703997 22.7350483
Ar 19.0012830 15.0370710  1.9952637
Ar 20.7142124 18.5872165  1.8131842
Ar 19.4308198 22.0274132  1.3466925
Ar 19.0970213 12.5098268  8.0242935
Ar 17.0210508 18.0404104 10.8295059
Ar 18.9954605 18.9781755  5.9029818
Ar 18.3259167  0.9906355  7.3901667
Ar 19.7328945 12.7391938 17.0729766
Ar 16.7974080 19.8887151 14.8803635
Ar 16.6477401 22.1342107 10.1174909
Ar 19.3889881 16.2747679 17.1691575
Ar 13.8073487 11.4435391 18.8867199
Ar 22.7224993 17.8369126 16.7493941
Kr  3.2733605 18.2539867 16.2833886
Ar 15.9455411 20.1617663 19.2584827
256
22.876152 22.876152 22.876152
Ar  1.2476223 22.1346590 21.0382265
Ar  3.2285786  3.0476508  2.7567135
Ar 22.1114364  4.8398354  1.9363853
Ar 21.0639045  0.8677618 20.7670739
Ar  1.7780216 21.7626532  4.5526832
Ar  6.4272205 19.5510296 14.6231306
Ar  3.8313345  2.0154816  5.9460873
Ar  2.1342283  0.6758280  9.8933711
Ar 19.4364414 20.1916789  9.0555641
Ar  0.3693284  0.3638594 13.0444059
Ar  5.4763003 22.0189063 11.5069393
Ar  2.7105152  4.9445402 12.2906857
Ar 22.2900259 20.3968717 14.4197961
Ar  0.0851686  0.4415569 16.9047315
Ar  2.1741608  2.5249113 19.2323385
Ar 20.7788807  6.3051823 22.0383257
Ar 21.2814214  8.0497531  3.2780885
Ar  1.1093278  4.5086619  4.7229669
Ar  2.0857036  7.8318710  2.3091684
Ar 22.2564793  9.8044923  0.2546361
Ar  0.1496388  1.1218329  2.6719441
Ar  1.2475165  4.3560185  8.7404140
Ar  8.3573146  9.6871775  3.5170362
Ar 22.0994897  4.2081619 11.5132778
Ar  6.0063295  7.3436298  8.9306382
Ar  4.9536963  7.5354829 14.9904720
Ar  6.5477862 10.3690780 10.9357940
Ar  2.3687179  8.3730085 13.2846130
Ar  1.2733148  6.0684312 20.8324981
Ar  2.9642998  8.8291909 21.8341019
Ar  3.5201383 10.5330857 15.5543828
Ar 21.3530398  7.4647804 17.1588350
Ar 21.4381536  9.9173057 19.6523009
Ar  2.4062698  9.6533694  6.8559480
Ar  1.6111720 12.4443315 21.6261810
Ar 21.1471270 15.6762628  4.6616004
Ar 19.4944811  9.6616926  5.4158513
Kr  5.9071091 10.8263428  7.5034172
Ar  1.6672554 16.9579646  3.8984851
Ar 22.4699020 11.1470456  8.2919151
Ar  1.8162434  7.4909861  9.8908118
Ar  3.1307121 11.1569414 10.5770520
Ar  2.8249795 17.2079138 10.6887808
Ar  0.4646754 16.0114410 12.5160579
Kr  1.2065598 12.2405961 13.3551558
Ar  5.0089017 13.7608094 21.0401438
Ar  3.1986467 15.5957822 18.8118356
Ar 19.0174541 17.5788188 20.6386709
Ar 22.8341560 15.6629349  0.8737413
Ar  4.8767374 19.8213111  3.7333724
Ar  5.2138602  0.1201042  2.8964644
Ar 22.8011702 19.3016377  6.3204539
Kr  1.2514165 16.3621210  7.6139534
Ar 20.5928346 16.2457957  9.2114607
Ar  4.8593411 21.5966180  6.7436605
Ar 20.8632991  0.3109855  9.7687251
Ar 21.9577676 19.2190268 10.8655527
Ar  3.4947156 14.8833519 15.0801964
Ar  2.5453634 20.0460304  8.9107951
Ar  1.4300691 17.8722929 20.7041717
Ar 22.5026829 14.7202975 15.7113617
Ar  1.5555445 19.6728067  1.7225072
Ar  4.0985717 21.7305926 16.0999660
Kr 21.8010830 19.8374476 19.3674028
Ar  4.7537948  0.9282337 21.0712455
Ar  6.9446983  3.9570029  1.3372861
Ar  6.8284520  3.7110800 20.5387371
Ar  3.7207013  5.6350103 22.8758664
Ar  8.6905298  2.0025380  4.6560575
Ar 14.6891904  0.8475857  8.0426343
Ar  5.7587880  4.3072251  4.4477772
Ar  5.1776687  2.0956303  9.7905836
Ar  5.9454220  3.3515827 12.9421851
Ar  9.2230114 19.8196928 10.5972838
Ar  8.1794904 21.6768855  8.1209760
Ar  3.3784548  2.1513414 15.6666985
Ar  1.5236787  2.1296498 22.5926207
Kr  7.8751625 21.3988467 19.5280656
Ar  6.4240772  0.5410004 14.8769545
Ar  4.2954616  6.9013671 18.9344877
Kr  5.9263017  9.8852507  0.0233040
Ar  7.7864700  7.2094985 20.6784460
Ar 10.0360776  9.3403373  0.6077347
Ar  4.8722851 10.7746200  3.8276187
Ar  5.2134791  7.7048540  5.2779684
Ar  9.1276399  1.8558098  9.5850889
Ar  7.1238602  7.1767333  1.9191250
Ar  6.9947412  6.9533260 12.2968220
Ar 10.9896640  4.7605789  9.1272625
Ar 11.5742717 20.4869476 13.7934024
Ar  9.2797931  5.5305891 15.0169705
Ar  7.2979277  7.9207540 17.6415824
Ar  6.1919810  4.4884513 16.6415289
Ar 10.6286609  4.5411405  3.3353101
Ar  9.4347950  4.8679040 18.6383158
Ar  7.1208959 11.5483288 19.8575859
Ar  9.3755222 12.5867166 21.8674919
Ar  9.3276285 13.5171396  2.8126071
Ar  8.2523080 14.7746918 19.2910216
Ar  3.9862563 14.7437295  4.2229536
Ar  9.5840957 11.3552720  6.0740441
Ar 12.0632330 11.0592365  8.4205791
Ar  9.9761875 15.6031962  0.1373952
Ar  2.6638703 13.0220784  7.2673550
Kr  9.3687918  7.8410905  6.6350086
Ar 10.7444077  9.1914227 12.3681634
Ar  9.5015762 12.6583155  9.5597001
Ar  5.5591189 12.8281288 12.9297851
Ar  8.1918001  9.2188707 14.7816610
Ar 10.1397969 11.8483609 17.5958295
Ar  9.3466043 12.2513209 13.2064265
Ar  1.0982763 11.6035386 18.1628672
Ar  6.2940996 14.5137209  1.4224212
Ar 10.5318214 19.5548740 22.6723903
Ar  8.4768911  0.1920076  0.3442821
Ar  7.2945768 19.6669384  1.1178926
Ar  6.8301439 17.1374918  3.8021977
Ar  7.5433297 14.6136860  6.2367799
Ar  9.0613094 17.7744299  7.3247315
Ar  5.2736134 17.4953708  7.0552445
Ar  5.3165137 13.8468965  9.9495680
Ar  7.7575093 16.3101195 12.5854525
Ar  5.8805150 18.8080045 10.9470440
Ar  3.2847315 20.1403868 12.6597127
Ar  7.0436581 12.2609041 16.3122945
Ar  3.9943912 17.0482020  1.5874866
Ar  5.8425507 19.0397472 18.0335519
Ar  4.8242376 19.6911099 21.5242748
Kr 11.4807388  0.1802856  2.4403146
Ar 15.5688529  2.1886545  3.7388112
Ar 13.7551260  3.0145865 22.8505922
Ar 10.8558442 22.4136302  6.2183930
Ar  8.6375720 20.4826095  4.2006465
Kr 13.8568539  3.2205184 13.2824372
Ar 12.1559675  7.9868548  4.6605958
Ar  7.6084448  4.2157597  7.7441306
Ar  9.7917967  1.6373680 13.6758723
Ar 13.5882632 22.4578351 16.3716511
Ar 16.4625448  1.0709591 14.6460307
Ar 12.5504065  0.8453634 11.0508784
Ar 10.1626493  1.2867794 19.0712225
Ar 12.2487877 21.9408755 21.6300817
Ar 11.4632846  3.2375578 16.6051738
Ar 10.0717344  2.7559628 22.1852764
Ar 13.3812982  5.3742920 20.3525660
Ar 14.8661385  5.5606492  3.8899990
Ar 16.2204382  6.2542830 22.3933857
Ar 12.7802133  7.0073859  0.4737213
Ar 12.3765909  4.7564547  6.0591461
Ar 15.6690669  3.2449909 10.3011046
Ar 18.1677291  6.3841891  2.3368726
Ar 15.1493617 12.6187379  8.9463859
Ar 12.4409451  6.7077852 13.6465896
Ar 15.6922992  5.9820246 12.6224063
Kr 15.1669470  9.7999357 11.4989345
Ar 12.0227703  9.0709157 16.1402375
Ar 14.4400315  1.3318791 19.5548835
Ar 14.5644964  5.0667933 16.7366410
Ar 15.2098057  8.0288616 19.6954199
Ar 11.3337514  8.5687248 19.4432678
Ar 12.7628818 12.1745649 22.1130741
Ar 21.8107918 11.8646471  5.1964020
Ar 14.5429000 13.5105619  1.9232932
Ar  9.9768478 16.4592393  4.2732918
Ar 11.9782825 11.2149827  3.2303101
Ar 14.3763527 14.1436129  5.3472652
Ar 17.5607635 15.7736353  4.9298798
Ar 11.3700388 14.4947761  6.9026143
Ar 12.6114401 13.8401226 11.4512338
Ar 15.6246492 13.1253720 13.0048490
Ar 10.2009533 15.1392523 16.3144714
Ar 15.3420812 16.2405059 15.5378805
Ar 12.7983004 12.8734618 15.1915435
Ar 16.4941108 12.4557293 22.3302814
Ar 11.9932202 15.2483879 19.7262481
Ar  7.7028585 17.2080602 20.9713713
Ar 13.4993220 16.6774819  0.5898017
Ar 17.3680729 18.4407445  3.0615958
Ar 14.1962481 20.0418357  2.1125192
Ar 14.6585425 17.8890442  4.3995063
Kr 14.9727309 16.6681480  7.7413347
Ar 17.2618891 14.7286734 10.4677519
Ar 13.9858651 22.0356075  4.9389399
Ar 11.8797698 19.0692389  6.2261817
Kr 10.2224629 16.0150623 10.1281327
Ar 11.0743662 16.4601155 13.5842949
Ar 12.7030751 19.7127704  9.2821383
Ar 13.9598789 19.1379865 16.1778080
Ar  6.6721433 15.8408573 16.0314289
Ar 12.1419026 19.3550778 18.9811758
Ar 15.4570630 16.6200859 19.8954901
Ar  9.3296939 18.6345202 16.0388933
Ar 15.1346450  0.0076228  0.2788261
Ar 21.2807785 21.9367784  5.4327900
Ar 17.9231802 22.4587219 21.0852307
Ar 17.8928805 21.9229436  4.2074105
Ar 16.1681884  3.8817144  6.3949548
Ar 22.3233301  2.0781511  6.5200091
Ar 19.7966809  3.1479078  4.5834190
Ar 20.2479746  4.6254663  7.8660965
Ar 16.3043389 20.0009842  7.5256017
Ar 19.3103055 22.6102722 14.2371102
Ar 18.6912680  2.4576619 11.9711245
Ar 20.8293360  2.8243500 15.1720041
Ar 19.4780678 20.5321524 17.0360585
Ar 16.1430038 19.4062791 22.4964672
Ar 22.2427591  3.7717765 18.4990331
Ar 17.9389006  1.1627531 17.4408985
Ar 15.2799696  8.4413276  2.2760078
Ar 18.7793231  2.5688650  0.9540784
Ar 18.6317422  8.4922039 21.0952951
Ar 18.8660018 10.8900920  2.0728690
Kr 13.8755831  6.8866508  8.4392248
Ar 22.7571281  6.4456840 14.2105289
Ar 17.5083715  6.5877024  6.4041253
Ar 18.2142217  6.6962929 10.4462684
Ar 19.0706949  5.8879561 14.8585586
Ar  2.6752875  5.3977430 16.2929146
Ar 22.3405411  9.4289943 10.9071513
Ar 15.4322146 10.3740477 14.9395678
Ar 18.0350046  4.9378561 18.3887594
Ar 16.8305785  2.7297682 21.1309324
Ar 18.0044885  8.3794971 13.3187030
Ar 18.0065376  8.2254406 17.4018991
Ar 16.7956208 11.2866033 17.8730898
Ar  2.4727004 12.6923996  2.0286567
Ar 20.5737250 13.0589327  0.2085988
Ar 17.4805677 12.4227504  4.7976749
Ar 14.3118031 10.3889576  5.7397789
Ar 16.9281071  9.9472263  7.9338164
Ar 21.6914367  7.5652338  7.1120406
Ar 13.7757304 17.2666605 11.3347555
Kr 18.9278058 10.5955131 10.9476342
Ar 19.0952094 15.0066441 13.5959808
Ar 21.7052874 13.2019578 11.2076855
Ar 14.1377734 20.8905689 12.0928338
Ar 21.4884018  9.8135200 14.8342049
Ar 21.8959482 15.7088922 20.0185411
Ar  1.6440086  8.3808267 17.7675687
Ar 17.9725490 14.1383142 19.6918697
Ar 17.1513290 15.9859542 22.4534122
Ar 19.1602672 14.9318154  2.3272431
Ar 20.6142336 18.5570744  2.1515514
Ar 19.4156615 21.7680352  0.9130338
Ar 19.0386793 12.6863025  7.9914169
Ar 17.4141616 18.5258728 10.9477644
Ar 19.2099683 18.7761704  6.0806129
Ar 18.6824110  0.9356401  7.4736191
Ar 19.7601751 12.6374026 16.7477329
Ar 16.9947785 19.8056192 15.3454576
Ar 16.2306325 22.3476329 10.1696390
Ar 19.5837574 16.0550216 17.0000623
Ar 13.4248088 11.2133479 18.8201752
Ar  0.1179802 17.7500781 16.5998731
Kr  3.2343006 18.2799609 16.4066937
Ar 15.8920506 20.0575431 19.0801729
256
22.876152 22.876152 22.876152
Ar  0.9821419 22.0371945 20.5519848
Ar  2.9671837  3.0634642  2.5695086
Ar 22.0513409  4.9208235  2.1383834
Ar 20.8865840  0.9454460 20.8411282
Ar  1.6655718 21.3723758  4.5357237
Ar  6.5568399 19.5494153 14.3947825
Ar  3.9242089  1.7453242  6.3020859
Ar  2.1921907  0.5331787  9.3613197
Ar 19.7416101 20.4889309  8.9223775
Ar  0.0783395  0.1950350 13.0804927
Ar  5.9306851 22.0115069 11.4054702
Ar  2.5487954  5.0639737 12.4665766
Ar 21.6936783 20.3058184 14.4322511
Ar  0.0692404  0.3861988 17.2960395
Ar  2.3287838  2.1681104 19.1060041
Ar 20.6605990  6.1177240 22.2821107
Ar 21.5745099  7.9708691  3.3201588
Ar  0.9485185  4.2708103  4.8505061
Ar  2.3601501  7.6815699  2.2770511
Ar 22.2262834  9.5257611 22.7923504
Ar 22.7673536  1.0051021  2.6003433
Ar  1.2913544  4.1519398  8.8354049
Ar  8.0229621  9.9738710  3.7347417
Ar 21.7716865  4.0540785 11.8520984
Ar  6.0319116  7.4190283  8.7719887
Ar  5.2429212  7.3107206 15.1076080
Ar  6.5780821 10.0520824 11.1114451
Ar  2.2023422  8.6950171 12.9022938
Ar  1.3205764  6.0778861 20.4265685
Ar  2.6235444  9.1023228 21.9042016
Ar  3.6421183 10.5397680 15.8391428
Ar 21.7390795  7.4137930 17.1556778
Ar 21.6978617  9.9006158 19.6096648
Ar  2.4609575  9.5778156  6.8984978
Ar  1.6633551 12.8780528 21.3534866
Ar 21.2007774 15.9820563  4.9289042
Ar 19.2581475  9.7893444  5.6844201
Kr  6.0024061 11.0585142  7.2610777
Ar  1.1198621 17.5099203  4.1012213
Ar 22.5201772 11.2592657  8.3559923
Ar  2.2439911  7.3987913  9.3525421
Ar  2.6367188 11.0466645 10.2300386
Ar  2.7769914 17.1282137 10.6344610
Ar  0.3692260 16.1364517 12.6301954
Kr  1.2798473 12.3977470 13.3118219
Ar  5.0216017 14.2390539 21.2167103
Ar  2.9171203 15.3574340 19.0194386
Ar 18.9944192 18.1504688 20.3290171
Ar  0.6444320 16.0526041  0.5072568
Ar  4.6896428 19.8179710  3.8882449
Ar  4.9162676  0.5927082  2.9277765
Ar 22.5728871 19.0522300  6.6605931
Kr  1.3571856 16.1633001  7.6322055
Ar 20.1859218 16.4626224  8.9781950
Ar  5.2664833 21.7082682  7.1803873
Ar 20.8482751  0.7415777 10.6586893
Ar 22.1063199 18.6850064 11.4034293
Ar  3.3077263 14.5532243 15.2371988
Ar  2.3930117 20.0494955  8.9024483
Ar  1.8206358 18.2995756 21.0667753
Ar 22.5333354 14.5518309 15.1297202
Ar  1.3104755 19.9727815  1.6367614
Ar  4.0156950 21.5749912 16.3127323
Kr 21.8149050 19.6468461 19.3300674
Ar  5.0989795  0.6376767 21.1967965
Ar  6.8945157  3.6181137  1.2987001
Ar  6.7264445  3.5677151 20.1996831
Ar  3.7992621  5.3774458  0.2213680
Ar  8.8041990  1.9797665  4.5641610
Ar 14.5216941  0.9482774  7.7161617
Ar  5.6091377  4.5702230  4.6395092
Ar  5.3604847  2.2132770  9.6264859
Ar  5.7674161  3.3352375 12.8333840
Ar  9.1132153 19.8097394 10.5245693
Ar  8.0471412 21.7423955  8.0887148
Ar  3.2449399  2.0768237 15.7660064
Ar  1.5057174  2.2553203 22.4072285
Kr  7.9390695 21.3321773 19.5969046
Ar  6.3221905  0.6551198 14.6271614
Ar  4.6671002  6.8477815 18.8988161
Kr  6.0844176 10.0668126 22.8643515
Ar  8.1115206  7.6012906 21.0585406
Ar 10.0634600  8.8687412  0.5265879
Ar  4.6216161 10.8649171  3.6449635
Ar  5.4173179  7.8248448  5.2591759
Ar  9.5418594  1.7274824  9.6915565
Ar  6.7052365  7.1305181  1.7522256
Ar  6.9311792  7.0258155 11.9358023
Ar 10.8993197  4.5903774  9.1432363
Ar 10.9332153 20.2897602 14.0391480
Ar  9.2615038  5.7089569 14.9903203
Ar  7.5480430  7.7997624 17.5894186
Ar  6.2730246  4.3563099 16.6174461
Ar 10.3421223  4.6034060  3.5822818
Ar  9.2136896  4.5310130 18.5608899
Ar  6.9178778 11.5233737 19.7065336
Ar  9.4400229 12.4044821 22.0026039
Ar  9.0359561 13.3869693  2.8774369
Ar  8.0496356 14.4332222 19.0728277
Ar  3.5359486 14.9434055  4.4830176
Ar  9.6391870 11.3498032  6.2559702
Ar 12.3548978 10.6136412  8.5435130
Ar 10.0792390 15.7911039  0.4366260
Ar  2.7534428 12.8762698  7.2543335
Kr  9.2036313  7.6645560  6.3841016
Ar 10.4137090  9.1199780 12.3734053
Ar 10.0452753 12.7390112  9.7083007
Ar  5.5971832 13.1223767 12.7902151
Ar  8.3646893  9.2392784 14.8534504
Ar  9.8560643 11.4288433 17.7368832
Ar  9.1431438 12.3570173 13.3594832
Ar  1.0057902 11.7000226 17.9985886
Ar  6.4280815 14.6697606  1.1260605
Ar 10.0484862 19.5931471 22.5924881
Ar  8.3175540  0.3197098  0.0716272
Ar  7.4760266 19.4974913  1.6713899
Ar  6.7422096 17.0326088  3.8778264
Ar  7.8409150 14.3959272  6.0773619
Ar  8.7370452 17.8882607  7.4431783
Ar  5.3624318 17.3868787  7.3666824
Ar  5.0732459 13.9500774  9.4457182
Ar  7.2582674 16.1918180 11.9049497
Ar  5.6034975 18.6767679 10.9698165
Ar  3.1982425 20.3706369 13.3225414
Ar  7.0769859 12.0821711 16.1491652
Ar  3.9654908 16.9969350  1.7257139
Ar  6.2094363 18.8571476 18.1029540
Ar  4.4993160 19.9068447 21.1983117
Kr 11.4333984  0.0804327  2.3396213
Ar 15.7064683  2.2897330  3.2405634
Ar 13.4686221  2.8685189  0.0478295
Ar 10.5844465 22.3547552  6.4736452
Ar  8.7873487 20.5715987  4.3987118
Kr 13.8568735  3.2677264 13.6438354
Ar 11.8756855  8.0032493  4.1949097
Ar  7.6384132  4.5697673  7.5756308
Ar  9.7533062  1.6384060 13.8050218
Ar 13.5131882 22.5524372 16.3898728
Ar 16.0912152  0.9096594 14.9484480
Ar 12.2371549  0.9354140 11.0051860
Ar  9.7987779  1.2454218 19.2929668
Ar 12.1984643 22.4850682 21.9374798
Ar 11.5375308  2.9477833 16.6623439
Ar 10.5738396  2.9555687 22.0227621
Ar 13.3264260  5.1962282 20.3026427
Ar 15.0941355  5.6002424  3.5651936
Ar 16.5135445  6.1799310 22.3350432
Ar 12.7333728  6.6930797  0.5131509
Ar 12.7292436  5.0449322  6.1191697
Ar 15.6052405  3.0972401 10.2364881
Ar 18.4045339  6.0082847  2.3622981
Ar 15.1994305 12.5818102  8.7256991
Ar 12.5279647  6.5212722 13.2078596
Ar 16.0829930  6.3844770 12.5196968
Kr 15.4837924  9.7781187 11.2510900
Ar 12.0871735  9.0882035 15.9343603
Ar 14.3721934  0.8767871 19.4655894
Ar 14.8905987  4.8256329 16.4538687
Ar 14.8924979  8.1046301 19.7712375
Ar 11.1125562  8.6761561 19.5361344
Ar 12.9841908 12.2320177 22.3506999
Ar 22.3405181 11.7733959  5.1124411
Ar 14.8726466 13.8999156  2.2827529
Ar 10.2316253 16.2313595  4.0166068
Ar 12.0617830 11.7755306  3.4225431
Ar 14.4027242 14.3242897  5.4283479
Ar 17.4145169 15.8880889  5.1715261
Ar 11.4246884 14.3370162  6.8161535
Ar 12.7816779 13.6318783 11.4914810
Ar 15.7832252 13.0333948 12.8892317
Ar 10.3114099 15.3955503 16.6121115
Ar 15.7799192 16.1079046 15.7420142
Ar 12.6461874 13.1877683 14.9426092
Ar 16.4604738 12.4616346 22.3890170
Ar 11.7305158 15.2545904 19.5085531
Ar  7.7416286 17.3262824 21.3846191
Ar 13.0908147 17.0092336  0.4892854
Ar 17.4275857 18.5098519  2.4336321
Ar 14.0324546 20.1637016  2.2515633
Ar 14.5388475 17.2779440  4.4164348
Kr 14.9972906 16.4264874  7.9395764
Ar 16.8549299 15.3070519 10.6656598
Ar 13.7152758 22.3395870  5.0388996
Ar 11.9125384 18.6314479  6.1970888
Kr 10.4903023 15.9307417 10.0860622
Ar 11.1692753 16.6788488 13.2053768
Ar 12.9831100 19.9809221  9.1923911
Ar 13.8159678 18.7184659 16.4508875
Ar  6.5575715 15.4700438 16.1333287
Ar 12.2323089 19.2325275 19.1755956
Ar 15.3701382 16.5174770 19.8388045
Ar  9.5837329 18.3397928 16.2338623
Ar 15.7319102  0.0704916  0.7980610
Ar 21.1042496 22.0708717  4.9805520
Ar 17.7071335 22.1617142 20.4664359
Ar 17.8642519 21.9738372  4.6461125
Ar 16.3913922  3.6071913  6.3673089
Ar 22.7617906  1.7248519  6.4082485
Ar 19.7341801  3.2988705  4.2960240
Ar 19.8796833  4.7601790  7.2326701
Ar 15.7999860 19.8820420  7.2124241
Ar 19.4625434 22.6017473 14.1318897
Ar 18.6604327  2.5705900 11.8626261
Ar 20.8222402  2.9749870 14.9819102
Ar 19.8463221 21.1015368 17.0789008
Ar 15.8394125 19.3021548 22.2021712
Ar 21.7809777  3.9224598 18.3096053
Ar 18.4195467  1.3776951 17.6566423
Ar 15.4510121  8.6625828  2.0262554
Ar 18.6298409  2.6274380  1.1539250
Ar 18.5450140  8.3187528 20.7433505
Ar 18.8124371 10.9443302  1.9786890
Kr 13.8208236  7.2398048  8.7629822
Ar 22.7218274  6.2294475 14.1846178
Ar 17.8884359  7.0121848  6.1395472
Ar 18.6025546  6.4491691 10.2255263
Ar 18.8484848  5.5921415 14.7200565
Ar  2.3758824  5.4110527 16.8295013
Ar 22.5659365  9.0885477 10.9608916
Ar 15.6793682 10.3226347 14.8930665
Ar 17.9370510  4.7738589 18.6713279
Ar 16.7852154  2.7688070 21.1327464
Ar 18.1418218  8.7258448 13.4720595
Ar 18.0830901  8.1255733 17.4223125
Ar 16.6691401 11.5978078 17.7303504
Ar  2.3849374 12.5452835  2.0868955
Ar 20.3522711 13.0380306 22.8208951
Ar 17.3880600 12.3257364  4.5524474
Ar 14.4926886 10.1060750  6.4436874
Ar 17.2710203  9.8366235  8.0072821
Ar 21.6356892  7.5240872  7.7708992
Ar 13.8527659 17.2954402 11.3669705
Kr 19.1167884 10.8140558 10.9191059
Ar 19.0700505 15.3693559 13.5502408
Ar 21.6041515 13.5119487 11.2502265
Ar 13.8307547 21.1773655 12.1894274
Ar 21.4983289  9.8732230 14.9533898
Ar 22.0428024 15.9783136 20.3561679
Ar  1.7814366  8.4261576 17.9466974
Ar 17.9545762 13.8901751 19.7984267
Ar 17.1247122 16.1875017  0.0376320
Ar 19.1479128 14.8123312  2.4657310
Ar 20.7558675 18.5018293  2.4666137
Ar 19.6778936 21.4046989  0.7571797
Ar 19.1118333 12.9934835  7.8696277
Ar 17.5995074 18.8432038 11.2598799
Ar 19.5284225 18.4533832  6.0892686
Ar 18.7763739  0.9598528  7.3595918
Ar 19.8713625 12.3939084 16.3738624
Ar 17.1204664 19.6783294 15.3209806
Ar 16.6196769 22.4824866 10.7110728
Ar 19.6734281 16.0855783 16.8888375
Ar 13.1222004 11.1355038 18.6765013
Ar 22.5483698 17.7570347 16.6291362
Kr  3.2331950 18.2878814 16.2689377
Ar 15.8707101 20.0691041 18.7989809
256
22.876152 22.876152 22.876152
Ar  1.0705252 22.0126128 20.2924439
Ar  2.6641486  3.1494926  2.2943445
Ar 22.0949924  4.7365372  2.2106399
Ar 20.6748165  1.1144574 20.9131406
Ar  1.6075512 21.1949901  4.8664436
Ar  6.7343470 19.5347350 14.1522076
Ar  3.8622200  1.7443921  6.5122470
Ar  2.1616090  0.4733796  8.9440690
Ar 20.0755432 20.8849508  8.7937803
Ar  0.2341865  0.1888822 13.3493369
Ar  6.4791876 22.2375972 11.2505255
Ar  2.5097408  5.1125445 12.5695959
Ar 21.2770505 19.8668184 14.4730567
Ar 22.8114254  0.2933468 17.4932000
Ar  2.6476939  1.9517893 19.0074121
Ar 20.5561815  5.8768841 22.3293308
Ar 21.8372437  8.0900304  3.4522424
Ar  0.7966192  4.5191368  5.2958718
Ar  2.5831594  7.6023155  2.4068613
Ar 22.0855141  9.2325327 22.8266789
Ar 22.5088636  1.0074510  2.4058767
Ar  1.3028054  3.8368208  8.8967880
Ar  7.6634656 10.1109673  3.6878131
Ar 21.5315248  3.9364779 11.8875714
Ar  5.9624231  7.5609416  8.4700153
Ar  5.3924890  7.1114941 15.1214348
Ar  6.5968921 10.1601203 11.2047141
Ar  2.4125717  8.9694848 12.8006169
Ar  1.2317519  5.9596571 20.1032876
Ar  2.3937921  9.4187183 21.8422922
Ar  3.8415802 10.6355675 16.0607551
Ar 21.6628298  7.0405810 17.3811703
Ar 21.6783710  9.8369211 19.4700745
Ar  2.5158017  9.4232677  6.6077462
Ar  1.6183929 13.2296441 21.1643878
Ar 21.4390418 15.8389652  5.3921038
Ar 19.7246890 10.1985404  5.5104102
Kr  6.1258277 11.2723193  7.0199900
Ar  0.8844908 18.0931617  4.1383668
Ar 22.3992066 11.4847237  8.5083448
Ar  2.8097345  7.1314854  8.9954932
Ar  2.3536091 10.9078815  9.9230857
Ar  2.8054815 16.8907325 10.6134985
Ar  0.6107457 15.9444858 12.7719246
Kr  1.5059321 12.3203940 13.2025666
Ar  5.0042482 14.5832026 21.2031233
Ar  2.4408660 15.3097059 18.8885663
Ar 18.6586661 18.6306262 20.0450272
Ar  1.2335909 16.2491947  0.4349690
Ar  4.4989801 19.8469610  4.0916795
Ar  4.9346388  0.7102513  2.9964872
Ar 22.5260949 19.1112253  7.2163237
Kr  1.4310985 15.9026060  7.6147787
Ar 19.7967508 16.6523544  8.8038427
Ar  4.7232779 21.5409268  7.3237625
Ar 20.9415166  0.8811906 10.9698281
Ar 21.9659580 18.8414077 11.4604761
Ar  3.1219743 14.2955342 15.4920113
Ar  2.2615441 19.9956797  8.8519325
Ar  1.9167141 18.5616604 21.3397972
Ar 22.1755297 14.2354402 15.4046209
Ar  1.0386728 20.2248637  1.2021691
Ar  3.8850973 21.5891645 16.9016189
Kr 21.9355578 19.4656353 19.4208213
Ar  5.3251512  0.3677845 21.3554265
Ar  6.8819685  3.1697081  1.2196579
Ar  6.2321560  3.3533403 20.1640025
Ar  4.0243589  5.1603314  0.1887302
Ar  8.6505222  1.6526910  4.5843888
Ar 14.3325378  1.1502375  7.6750935
Ar  5.4862110  4.6571041  4.7597311
Ar  5.6087972  2.3621667  9.3367612
Ar  5.6035995  3.5896414 12.7265188
Ar  9.1667789 19.5860614 10.7676288
Ar  8.1960601 21.7647274  8.4919343
Ar  3.0648316  2.0816792 15.6934488
Ar  1.3978513  2.4376454 22.2463313
Kr  7.9953327 21.2120692 19.7506915
Ar  6.4676399  0.6522961 14.4751081
Ar  5.0519023  6.7164459 19.1715744
Kr  6.2327342 10.3580301  0.0083580
Ar  8.1226524  7.7411197 21.2888799
Ar 10.2306169  8.6392003  0.7386897
Ar  4.4972652 10.8706523  3.5974442
Ar  5.5741484  8.0546648  5.2479866
Ar  9.2581558  1.5166444  9.6434751
Ar  6.3372700  6.9887909  1.7122446
Ar  7.0140439  6.6411476 11.8650344
Ar 10.9712958  4.7328261  9.1940879
Ar 10.3471783 20.3515869 14.0595537
Ar  9.2671851  5.8669680 14.9131162
Ar  7.9843223  7.6258642 17.8565908
Ar  6.2920300  4.0910115 16.5742443
Ar 10.1573923  4.9773118  3.5767808
Ar  9.3692845  4.5980378 18.3449688
Ar  6.4721968 11.0398037 19.4538177
Ar  9.5209094 12.2180847 22.2053107
Ar  8.7257195 12.9396752  2.8883397
Ar  7.9933929 14.3300872 18.8975956
Ar  3.2418885 15.0885176  4.8132156
Ar  9.8307521 11.3807393  6.5996548
Ar 12.2274411 10.1964846  9.1009982
Ar 10.0074978 15.8458889  0.7135919
Ar  2.7080266 12.7756093  7.0654725
Kr  8.9929616  7.4772332  6.2101240
Ar 10.2722906  9.1200236 11.9639261
Ar 10.0919537 12.3590667  9.8652001
Ar  5.5623930 13.3149202 12.8958095
Ar  8.4685798  9.3469442 14.7618703
Ar  9.7125404 11.0575625 17.8971015
Ar  9.0452459 12.6075256 13.4322741
Ar  1.0382755 12.2132176 17.6315517
Ar  6.7504946 14.8371675  1.1587300
Ar  9.9188434 19.6859052 22.4058288
Ar  8.1655285  0.3440558 22.7541179
Ar  7.2987322 19.3105798  1.9228556
Ar  6.6908946 16.7790391  4.1089419
Ar  8.0083313 14.2152392  6.0350229
Ar  8.4412286 18.0266891  7.5208778
Ar  5.2340409 17.2630072  7.6688114
Ar  4.9724610 14.2507564  8.9188005
Ar  7.0199529 15.7591019 11.3998819
Ar  5.3838572 18.9012840 10.7809373
Ar  2.8724321 20.5707354 13.7139952
Ar  6.7464152 11.9795676 15.9516762
Ar  3.9171789 17.1137354  1.6934133
Ar  6.6122197 18.4219147 18.1583451
Ar  4.6751889 20.3418411 20.9018173
Kr 11.3038465  0.0236999  2.3417342
Ar 15.7603601  2.4179985  2.9291871
Ar 13.8326427  2.7426110  0.4139393
Ar 10.9932063 22.5921095  6.6321090
Ar  8.9219873 20.6124516  4.7544017
Kr 13.7665792  3.2177357 13.8442222
Ar 11.7955059  8.1052962  3.5575785
Ar  7.6611617  4.7153683  7.4323429
Ar  9.7323635  1.6426220 13.8811136
Ar 13.0769942 22.4200842 16.4119137
Ar 16.0287716  0.7783165 15.0396735
Ar 12.3624282  1.0845257 11.0878699
Ar  9.6070214  1.2417433 19.3430761
Ar 12.1983242  0.0732982 21.9347153
Ar 11.7781610  2.6314078 16.6444434
Ar 10.4935749  3.4293742 21.8559695
Ar 13.1550915  4.7771199 20.1050314
Ar 15.2371439  5.7577362  3.2122394
Ar 16.6593930  5.9584761 22.3411173
Ar 12.7385907  6.3047410  0.6231414
Ar 13.1127563  5.2199309  6.2121073
Ar 15.4866129  3.0902046 10.1591448
Ar 18.6957541  5.7997481  2.4543031
Ar 15.3029963 12.7374410  8.5832232
Ar 12.6202383  6.3557255 12.7758533
Ar 16.1517349  6.4662020 12.4206739
Kr 15.6792816  9.7627332 11.0130491
Ar 12.1447743  9.0775885 15.6524561
Ar 14.2865764  0.4415889 19.3881567
Ar 15.3507764  4.7709925 16.4716923
Ar 14.6960152  8.4226770 19.7444004
Ar 10.8468225  8.5124778 19.7353654
Ar 13.1275869 12.2780369 22.5967506
Ar  0.0146847 11.7838312  4.6961208
Ar 15.2219144 14.3295286  2.3421550
Ar 10.6765918 16.2965944  3.8573630
Ar 12.2175511 12.2756790  3.6227840
Ar 14.3885477 13.7741466  5.6405647
Ar 17.3959543 15.9079550  5.6130292
Ar 11.3637347 14.2663946  6.8486752
Ar 13.0191777 13.3788775 11.4616138
Ar 16.1082497 13.0108957 12.9007543
Ar 10.4246180 15.0257180 16.5930849
Ar 16.3480543 15.7486079 15.8879345
Ar 12.5206231 13.4295020 14.7972236
Ar 16.4903718 12.3140130 22.5329647
Ar 11.6473372 15.2408469 19.7098475
Ar  7.5146037 17.5130322 21.7059174
Ar 12.9911239 17.4377637  0.3794659
Ar 17.4123110 18.8898934  2.0231150
Ar 13.7865180 20.2649759  2.3850774
Ar 14.2571611 17.1007888  4.1461627
Kr 14.9472048 16.3013592  8.2050418
Ar 16.7604117 15.8521401 10.9173873
Ar 13.6045033 22.4240190  4.8177213
Ar 11.9330915 18.2782619  6.1159269
Kr 10.7344296 16.1343080  9.8342755
Ar 11.1962518 16.9522610 13.3780650
Ar 13.0863670 20.3024542  9.0791338
Ar 13.5751215 18.3234374 16.2766667
Ar  6.4428116 15.3466836 16.1218233
Ar 12.0731389 19.1748293 19.7772878
Ar 15.1284151 16.4407691 19.5758138
Ar  9.5457242 18.4537897 16.6787326
Ar 16.4060036 22.6709197  1.0064561
Ar 20.9250022 21.9737452  4.5637164
Ar 17.6723199 22.0060780 20.0349819
Ar 17.4717347 21.9368794  4.9141891
Ar 16.6177844  3.3788846  6.5237696
Ar  0.2448090  1.1718507  6.5693136
Ar 19.7244388  3.2034472  4.0496631
Ar 19.6365657  4.4263814  7.0043298
Ar 15.4482227 19.8490587  6.7829238
Ar 19.3808115 22.8275040 13.8155976
Ar 18.2110479  2.9967760 12.0258020
Ar 20.9651769  2.8532479 14.9494146
Ar 19.9814727 21.6942380 17.2296117
Ar 15.5341770 19.3190485 21.8614974
Ar 21.3053728  4.0279023 18.1936994
Ar 18.9403354  1.7078066 17.9456489
Ar 15.6563484  9.0699926  1.7595892
Ar 18.5828949  2.5797174  1.1722271
Ar 18.4562439  8.4269527 20.4584909
Ar 18.7802348 10.6332305  1.8260835
Kr 13.8246601  7.5094945  9.1284579
Ar 22.6302005  6.1234561 14.2183185
Ar 17.8495674  7.2391236  5.7543411
Ar 19.0991648  6.2319859  9.9048014
Ar 18.5690857  5.2504241 14.7022798
Ar  2.0076503  5.1253997 17.1310495
Ar 22.3121981  8.7453340 11.1741945
Ar 15.5584943 10.1273886 14.9015128
Ar 17.9161800  4.7647638 18.8619497
Ar 16.7065868  2.7699071 21.2073706
Ar 18.6623373  9.2344680 13.7494707
Ar 18.1179358  8.0730751 17.1779491
Ar 16.5059080 11.8823660 17.7604220
Ar  2.0042136 12.5585312  1.9227262
Ar 20.4248426 13.0352944 22.1145812
Ar 17.0648096 12.3937358  4.5158894
Ar 14.8320800  9.7127940  6.2915579
Ar 17.5778255  9.5947602  8.5170097
Ar 21.7600506  7.7866557  8.3304944
Ar 14.0570848 17.3985644 11.4234487
Kr 19.3793856 11.1090800 10.8705289
Ar 19.0659055 15.7102589 13.4246558
Ar 21.2632643 13.8644006 11.0506827
Ar 13.6848967 21.2385741 12.6627655
Ar 21.6863274  9.9616088 14.7191949
Ar 22.0584252 16.1196503 20.5070004
Ar  2.1797306  8.7513357 18.2345706
Ar 18.1826083 13.9004994 19.8321369
Ar 17.0466691 16.0225719  0.4391968
Ar 19.0766738 14.6646024  2.5676118
Ar 21.0555400 18.4406563  2.7256590
Ar 19.9296184 21.1005254  0.6160262
Ar 19.1987383 13.3750750  7.7054948
Ar 17.7266281 19.1289421 11.6407329
Ar 19.2493587 18.5025204  6.0111062
Ar 18.8996099  1.0543209  7.3651030
Ar 19.8292808 12.2967218 16.1277193
Ar 17.2061995 19.5329337 15.1621448
Ar 17.2394249 22.6332434 11.2044816
Ar 19.4985395 16.0665288 16.9641547
Ar 13.1102120 11.3336041 18.5244484
Ar 22.2891946 17.6697814 16.5219640
Kr  3.1726172 18.0958619 16.1056502
Ar 15.7330713 19.9540816 18.3282771
256
22.876152 22.876152 22.876152
Ar  1.4754696 22.0977739 20.4643492
Ar  2.2731346  3.2193151  2.5000556
Ar 22.3143835  4.5192287  2.2103790
Ar 20.5378553  1.2845399 21.0736092
Ar  1.5176505 21.3366239  5.2990540
Ar  6.8602177 19.5002475 13.9472497
Ar  3.7686303  2.1050755  6.2794968
Ar  2.2617285  0.3223904  9.2312493
Ar 20.2712970 21.2857066  8.7618018
Ar  0.5947751  0.2117222 13.9115290
Ar  6.8833400 22.5188045 11.2868539
Ar  2.4983828  5.1632468 12.5689997
Ar 20.7496113 19.6801408 14.4560332
Ar 22.8441602  0.4611166 17.3854967
Ar  3.0923567  1.8725438 19.0225397
Ar 20.3901299  5.6624431 22.1034288
Ar 22.0955878  8.2433787  3.6335699
Ar  0.7039932  4.8706606  5.7932406
Ar  2.7811885  7.5581392  2.5978719
Ar 21.7616172  8.9344143  0.1999082
Ar 22.3480231  1.1067102  2.0380633
Ar  1.2688854  3.5906393  9.0049890
Ar  7.6094269  9.8247967  3.5909284
Ar 21.4734098  4.1151838 11.6268606
Ar  6.1900977  7.8269905  8.3868409
Ar  5.4573881  7.0069156 15.1017886
Ar  6.6064655 10.3985368 11.2719443
Ar  2.9249853  8.9688163 12.9242603
Ar  1.0161976  5.8619313 20.2625239
Ar  2.3909470  9.7504876 21.7598430
Ar  3.7689599 10.6275175 16.0846811
Ar 21.5646750  7.1084149 17.5336316
Ar 21.6291882  9.9062182 19.2396262
Ar  2.4822027  9.2389252  6.0612073
Ar  1.4330238 13.2893428 21.2092009
Ar 21.5658091 15.3874378  5.7927268
Ar 20.3309663 10.7613122  5.3299094
Kr  6.2321892 11.4267472  6.8195276
Ar  1.3144089 18.2947004  4.1995734
Ar 22.0081636 11.7625200  8.4614345
Ar  3.0351009  6.6582350  8.9317009
Ar  2.4204868 10.6886527  9.7596742
Ar  2.9488550 16.5958443 10.6089090
Ar  0.8599927 15.5829831 13.1999750
Kr  1.6929684 12.2056640 13.0055196
Ar  4.9100644 14.8817157 20.9877720
Ar  1.9953049 15.6350539 18.5138686
Ar 18.1181635 18.8489344 19.8282414
Ar  1.2475505 15.9058215  0.6282905
Ar  4.4924308 19.7863125  4.2747789
Ar  5.0914298  0.6001539  3.1313582
Ar 22.2722211 19.0790171  7.6231008
Kr  1.3971193 15.7213816  7.6686816
Ar 19.4620858 16.8747954  8.7833059
Ar  4.4844836 21.2243513  7.3442276
Ar 20.8990012  0.8218462 10.7089222
Ar 21.7433290 19.2076687 11.0818220
Ar  3.0913193 14.2119156 15.7626669
Ar  2.2249684 19.7088995  9.1401504
Ar  2.0129484 18.7774805 21.2056560
Ar 21.9233224 14.2450343 15.6721889
Ar  0.7184725 20.6223178  0.8851503
Ar  3.8272966 21.7406974 17.6657509
Kr 22.0196564 19.3552672 19.5026857
Ar  5.1873284  0.6681348 21.6119274
Ar  6.8597853  2.8955302  1.2010713
Ar  5.8237296  3.3609783 20.0951815
Ar  4.2256610  5.0487287 22.5813952
Ar  8.4041605  1.3239534  4.6233441
Ar 14.0787539  1.2471397  7.7939407
Ar  5.3017714  4.5983395  4.7221798
Ar  5.8322425  2.4997732  9.1391774
Ar  5.4767888  3.7365731 12.6905324
Ar  9.2945020 19.1552717 11.1580474
Ar  8.1306785 21.3441692  8.3404718
Ar  2.9267445  2.0586650 15.3532610
Ar  1.1343631  2.5904372 21.9090043
Kr  8.0522707 20.9953528 19.8603072
Ar  6.5263753  0.5489344 14.5242554
Ar  5.2226264  6.5363520 19.5373944
Kr  6.3291889 10.6969059  0.1309937
Ar  7.6467758  7.5828838 21.4279034
Ar 10.2445089  8.7531959  0.7656318
Ar  4.1621673 10.9829478  3.5425815
Ar  5.4505903  8.1201556  5.1273757
Ar  8.9491408  1.8460563  9.7154537
Ar  6.1635045  6.9374193  1.8231796
Ar  7.2301005  6.2833029 11.7984873
Ar 11.0776365  4.9320588  9.2747275
Ar  9.9146999 20.7184504 13.9579800
Ar  9.3131800  5.9534441 14.7744622
Ar  8.4295693  7.6736312 17.9186335
Ar  6.2785792  3.7204066 16.5154590
Ar  9.9570767  5.2973074  3.4990025
Ar  9.6399642  4.6477298 18.2225200
Ar  5.9552676 10.4909010 19.1067098
Ar  9.5719686 12.0458221 22.3460814
Ar  8.8035600 12.7891944  2.8662085
Ar  7.9575572 14.2097755 19.0058129
Ar  3.1617748 15.3419873  4.7372618
Ar 10.0034046 11.0433379  6.7801887
Ar 12.1423822 10.2581474  9.4187039
Ar  9.9192401 15.7789116  0.6709176
Ar  2.5267444 12.4364100  6.7588688
Kr  8.9237527  7.4643645  5.9949943
Ar 10.1742582  9.0331253 11.4533057
Ar  9.5904567 12.3429608 10.2050941
Ar  5.2813294 13.2882910 13.0660421
Ar  8.4662311  9.3521795 14.7703374
Ar  9.4828938 10.8697505 17.9292810
Ar  9.0787219 12.9504808 13.4316622
Ar  1.0340881 12.5408280 17.4229944
Ar  6.8485216 15.0626446  1.2834609
Ar  9.9809254 19.9549963 22.5005110
Ar  8.4957403  0.2490421 22.7709235
Ar  7.0815015 19.2194481  2.0213756
Ar  6.6068953 16.5352143  4.4644132
Ar  8.0659000 14.1888050  6.1124578
Ar  8.3537321 18.1856959  7.5387893
Ar  4.8502763 17.4486793  7.7340405
Ar  4.9948689 14.2896017  8.6733603
Ar  7.0814342 15.5402801 10.8413811
Ar  5.3649058 19.3969918 10.6047339
Ar  2.5962571 20.7762135 13.7921953
Ar  6.7021352 12.0543317 15.8970333
Ar  4.3012515 17.4197029  1.8087507
Ar  6.6024513 17.8119280 18.2679249
Ar  4.9122182 20.1673910 20.4858456
Kr 11.0206836  0.0149580  2.4007215
Ar 15.9163777  2.6346073  3.3852289
Ar 14.0689814  2.7243648  0.5626374
Ar 11.3096491  0.0696922  7.0123181
Ar  9.0102647 20.5901015  5.0980714
Kr 13.6632048  3.1031416 13.8558039
Ar 12.0911209  8.2267193  3.4884508
Ar  7.6654212  4.4336110  7.4556042
Ar  9.7947258  1.6676327 13.8813082
Ar 12.4752498 21.9547847 16.2925462
Ar 16.2021510  0.6004320 15.1314982
Ar 12.6589007  1.2499900 11.1664984
Ar  9.5841592  1.4113212 19.2820952
Ar 12.0583603  0.3491023 21.7406984
Ar 11.9563501  2.4531076 16.8163075
Ar 10.1877948  3.9812925 21.8176638
Ar 13.0830928  4.3698738 19.8025589
Ar 15.3212454  6.0417822  2.9242711
Ar 16.7073712  5.8255712 22.4113953
Ar 12.8143396  5.8401246  0.6608024
Ar 13.4919056  5.3654066  6.2613985
Ar 15.2392940  3.2665901 10.1052397
Ar 18.8990928  5.9714167  2.4845816
Ar 15.5797243 12.7214110  8.8048679
Ar 12.5864159  6.3356888 12.3277884
Ar 16.2215253  6.4609203 12.3112035
Kr 15.7171892  9.9110075 11.1437555
Ar 12.1285612  9.0342912 15.3663564
Ar 14.4047081  0.1195660 19.3051727
Ar 15.7810256  4.8474406 16.6874061
Ar 14.5585295  8.6804678 19.7382534
Ar 10.9972556  8.2599911 19.9646696
Ar 13.1148974 12.3235237 22.8505481
Ar  0.4905885 11.7718765  4.3659131
Ar 15.2394210 14.4132099  2.4568790
Ar 11.0097916 16.2250182  3.7855659
Ar 12.1982120 12.6295854  3.6208392
Ar 14.2863015 13.3399076  5.9091652
Ar 17.3124171 15.6979249  5.9350142
Ar 11.3308209 14.3940679  6.9334836
Ar 13.2427445 13.1741372 11.2367552
Ar 16.5859754 12.9985539 13.0065903
Ar 10.2242808 14.7363276 16.4500636
Ar 16.5409405 15.3000524 15.9019080
Ar 12.7103401 13.4265054 14.5956580
Ar 16.6690215 12.1422321 22.6493983
Ar 11.6553484 15.2187472 20.2348675
Ar  7.0602622 17.5877064 21.8353637
Ar 12.9804047 17.7719506  0.2742240
Ar 17.4001046 19.4439678  1.9600876
Ar 13.6238759 20.1639298  2.3007746
Ar 14.1495343 17.1005411  3.7473205
Kr 14.7283519 16.2802952  8.2881948
Ar 17.0933146 16.0584407 11.2190137
Ar 13.9181100 22.5689751  4.5575060
Ar 11.8759255 18.2221913  6.4186678
Kr 10.9715301 16.3901553  9.5782199
Ar 11.1260711 17.1702464 13.7239058
Ar 13.0020030 20.6576691  9.1085194
Ar 13.2107707 17.8646316 15.9799084
Ar  6.2957545 15.4811141 15.9132850
Ar 12.0465023 19.0934191 20.2137514
Ar 14.9201923 16.3549433 19.3044660
Ar  9.6998853 18.5535498 17.2225671
Ar 17.0554130 22.1210051  0.8809216
Ar 20.6862765 21.6687227  4.2913095
Ar 17.7692884 22.1201048 19.8932307
Ar 17.0123078 21.9604676  4.9722307
Ar 16.5404709  3.3019687  6.5204336
Ar  0.1349343  0.8219611  6.4650282
Ar 19.8787375  2.6459166  4.1179160
Ar 19.8332667  4.3279659  7.1369469
Ar 15.1786280 19.6602888  6.2826264
Ar 19.3927776  0.1579322 13.8916595
Ar 17.7491684  3.4416156 12.2743411
Ar 21.2305572  2.5377215 15.1177347
Ar 19.8398685 21.7125793 17.2808908
Ar 15.2721637 19.4746071 21.5045747
Ar 21.2975769  4.0364000 18.3547663
Ar 18.8923201  1.9406507 18.0929806
Ar 15.7313406  9.4538563  1.4891311
Ar 18.7044648  2.4056165  0.7539897
Ar 18.4084142  8.6138381 20.4074528
Ar 18.9489143 10.2869265  1.6768877
Kr 13.9788346  7.2640902  9.4229350
Ar 22.4692202  6.1927613 14.3468002
Ar 17.6542171  7.3141241  5.3425104
Ar 19.4611053  6.0680552  9.7844394
Ar 18.3241939  5.1299222 14.8273777
Ar  1.7373157  4.7673884 17.0431349
Ar 21.9528650  8.5264295 11.8106402
Ar 15.2760144  9.8878713 14.9355095
Ar 17.9598339  5.1364091 19.0529335
Ar 16.5034084  2.4615417 21.1967528
Ar 19.0254988  9.5153087 13.9642064
Ar 18.0828167  8.0290586 16.7228798
Ar 16.3327792 12.0837604 17.7427923
Ar  1.5928027 12.6934526  1.5457514
Ar 20.7408409 12.9185788 21.5968019
Ar 17.0406343 12.2296531  4.4666587
Ar 15.1070098  9.3533299  5.9485327
Ar 18.2019881  9.1601076  8.3019544
Ar 21.8650060  7.9081713  8.1968855
Ar 13.9739571 17.7853395 11.6466037
Kr 19.6341138 11.3829696 10.8906550
Ar 19.2887725 16.0551027 13.4535027
Ar 21.0942859 14.5171333 10.8232616
Ar 13.6506605 21.1738970 13.2410922
Ar 22.3643648  9.9281830 14.5304916
Ar 21.9539158 16.0793605 20.5786686
Ar  2.4807363  9.0279782 18.5841402
Ar 18.3416277 14.1957334 19.7527889
Ar 17.0710380 15.9954228  0.0004035
Ar 19.2418644 14.4062492  2.8411909
Ar 20.8669791 18.3891896  2.7388349
Ar 20.2089303 20.8933747  0.3958936
Ar 19.2568648 13.6451878  7.5245472
Ar 17.9228249 19.4190666 11.9291963
Ar 18.8648280 19.0637148  5.8522073
Ar 19.1321437  1.0667337  7.4917142
Ar 19.2451806 12.1033649 16.1199395
Ar 17.3289199 19.3942368 15.0318022
Ar 17.5301221 22.7396827 11.3011358
Ar 19.3496589 15.9929744 17.3103787
Ar 13.0982929 11.6444507 18.3916558
Ar 22.5069794 17.3452716 16.4272031
Kr  3.1286306 17.7774126 16.0042671
Ar 15.4321298 19.7597033 17.7782267
256
22.876152 22.876152 22.876152
Ar  1.8425140 22.2204422 20.7731537
Ar  2.3984505  3.1251825  2.8545670
Ar 22.1653899  4.6520206  2.1257402
Ar 20.6618491  1.3325446 21.0873288
Ar  1.7231756 21.2507151  5.5267755
Ar  6.7421482 19.3634313 13.8064439
Ar  3.5028002  2.2924006  6.0691201
Ar  2.4558267  0.1149916  9.8060013
Ar 20.1741246 21.2497054  8.6747225
Ar  0.4139475  0.3585157 14.1485960
Ar  7.1671371 22.7650711 11.4532970
Ar  2.3146495  5.2905414 12.5233680
Ar 20.3807899 19.5828605 14.3969723
Ar  0.2144359  0.6820333 17.4639401
Ar  3.2985990  1.9917195 18.9099484
Ar 20.2668039  5.4051738 21.7896517
Ar 22.3650210  8.2980186  3.8610027
Ar  0.6172028  5.2610175  6.2075199
Ar  2.8667719  7.4866479  2.7328029
Ar 21.6106678  8.5708563  0.2804509
Ar 22.1758358  1.0745117  1.6004474
Ar  1.1674678  3.3741791  9.1825207
Ar  7.8583707  9.5303246  3.2889356
Ar 21.5982166  4.2667317 11.4939756
Ar  6.6090904  8.1568123  8.5473510
Ar  5.5116313  6.9306969 15.1005072
Ar  6.5661642 10.5826960 11.3489196
Ar  3.5197803  8.7076044 13.0280881
Ar  0.8134710  5.9089481 20.6317828
Ar  2.4226728 10.1233300 22.0122608
Ar  3.4997919 10.5732425 15.8430326
Ar 21.4645337  7.4050177 17.5304694
Ar 21.6163441 10.2569942 19.1541544
Ar  2.1238567  8.8256004  5.6549927
Ar  1.3354376 13.3081272 20.8458680
Ar 21.4984226 15.0170799  5.8082457
Ar 20.6397970 11.2708909  5.2457885
Kr  6.2678693 11.4112773  6.6423413
Ar  1.6485309 18.1414544  4.1628960
Ar 21.9200798 12.0021004  8.2471244
Ar  3.0740776  6.1970597  8.9143425
Ar  2.5673522 10.3675385  9.6000042
Ar  3.2557422 16.2919591 10.8520103
Ar  1.0701252 15.5070658 13.5773704
Kr  1.8498649 12.1506946 12.7586185
Ar  4.7276396 15.1330815 20.7477175
Ar  1.6043888 16.0349537 18.5609791
Ar 17.8416342 18.7154374 19.5541153
Ar  1.1133039 15.8484909  0.8476051
Ar  4.6291881 19.7310613  4.4275279
Ar  5.1716562  0.3922949  3.2911946
Ar 22.0225290 18.6612177  7.5310956
Kr  1.3736553 15.6068598  7.8695091
Ar 19.1458014 17.2750868  8.7214743
Ar  4.6188615 21.1633151  7.3389361
Ar 21.0544396  1.0360890 10.6534468
Ar 21.6133759 19.4372166 10.8494670
Ar  3.3213600 14.1616061 15.7236885
Ar  2.1000850 19.3175776  9.7150419
Ar  2.1790825 18.5943034 21.1475571
Ar 21.4440951 14.1652621 15.6458429
Ar  0.5837553 21.0562890  0.7984988
Ar  3.7718240 21.7938473 18.1032727
Kr 21.9573361 19.3834170 19.4933964
Ar  4.8367715  0.7477773 22.1218586
Ar  6.8324602  2.8799142  1.2362875
Ar  6.0068379  3.4835121 19.8626433
Ar  4.1653161  4.9167305 22.2379933
Ar  8.1137752  1.0811175  4.7351116
Ar 14.1928467  1.3007516  7.8947481
Ar  5.2172334  4.6394831  4.4878266
Ar  5.5066385  2.4268717  9.1766460
Ar  5.3945512  3.4822222 12.7825646
Ar  9.2869119 18.7228673 11.3422129
Ar  8.0256717 21.1825414  8.2018573
Ar  3.1024840  2.0971992 15.0067563
Ar  0.8374340  2.7397215 21.5941922
Kr  8.2386583 20.8161900 19.8171143
Ar  6.4718452  0.4146552 14.7712291
Ar  5.0505016  6.6353904 19.5032273
Kr  6.3465803 11.0419224  0.2827042
Ar  7.3714631  7.4546049 21.7641466
Ar  9.9893123  8.9193060  0.4407900
Ar  3.8200952 11.2229553  3.3814419
Ar  5.1764540  7.8495321  5.0814702
Ar  9.0811524  2.2824498  9.8611093
Ar  6.1791146  6.9067824  1.9697151
Ar  7.6182877  6.2240583 11.5841560
Ar 11.1286023  5.0875884  9.3189492
Ar  9.6980974 21.2992277 14.0236921
Ar  9.4141668  5.9290248 14.6160365
Ar  8.5286400  7.7569361 17.8107082
Ar  6.2742468  3.3553485 16.4427007
Ar  9.7828977  5.4228358  3.2274635
Ar  9.9304935  4.6539013 18.1377886
Ar  5.5121950  9.9528155 18.7958698
Ar  9.6776647 12.0036050 22.3333273
Ar  8.9457880 12.8783609  2.8402581
Ar  7.8768063 14.0526111 19.2512510
Ar  3.2756765 15.4531370  4.3962751
Ar 10.1379076 10.6558570  6.8109632
Ar 12.5126478 10.5757455  9.2739509
Ar 10.0415504 15.7490420  0.3823319
Ar  2.5848596 12.3007071  6.7113290
Kr  8.9457158  7.5306600  5.8490941
Ar  9.7211628  8.6836012 11.3509748
Ar  8.9499850 12.5520434 10.3278662
Ar  4.9843380 13.2705307 13.0841697
Ar  8.4557924  9.3508611 14.6453492
Ar  9.3448806 10.9454682 17.9709100
Ar  9.1324820 13.3471560 13.5670411
Ar  0.9362446 12.2360509 17.7271031
Ar  6.5550751 15.1060939  1.4010704
Ar 10.0124317 20.1121326  0.2229332
Ar  8.7996984  0.2103707 22.7187189
Ar  7.2231372 19.3650792  2.1286073
Ar  6.4263531 16.5838708  4.7562798
Ar  8.2338039 14.2069339  6.3246090
Ar  8.2799899 17.9072064  7.5156864
Ar  4.4430652 17.9094854  7.5299637
Ar  4.8583783 13.9458081  8.4429658
Ar  7.3830558 15.5299061 10.4190402
Ar  5.4628521 19.8898527 10.4972560
Ar  2.7563971 20.5432134 13.7950039
Ar  6.9563110 12.2722789 16.0024055
Ar  4.4193499 17.6067608  1.7958450
Ar  6.3222301 17.2405187 18.5346727
Ar  4.9788480 19.7647396 20.2129431
Kr 10.7564480  0.0101677  2.5117298
Ar 16.2176208  2.6438906  3.6713086
Ar 14.0901494  2.5776101  0.6279155
Ar 10.9720856  0.2651420  7.2640202
Ar  9.1676556 20.5440123  5.1797402
Kr 13.6543752  3.0653803 13.8723046
Ar 12.6821100  8.3278902  3.9087796
Ar  7.8990122  4.2911745  7.2973356
Ar  9.9333780  1.7474363 13.8337753
Ar 11.8505141 21.3883788 16.3928373
Ar 16.3050410  0.4029058 15.2959694
Ar 12.7398458  1.2018984 11.0664770
Ar  9.5140164  1.4807735 19.2419528
Ar 11.8517105  0.5579264 21.5736559
Ar 12.1240262  2.2815871 17.0764104
Ar  9.7776723  4.5159718 21.8717779
Ar 13.1354457  4.0029978 19.5384291
Ar 15.3966989  6.3948506  2.7454053
Ar 16.6849437  5.7524636 22.5082286
Ar 12.7346718  5.5836248  0.5786939
Ar 13.8349425  5.5048580  6.2375055
Ar 14.9742176  3.7222361 10.0772552
Ar 19.1806872  6.1352918  2.4012061
Ar 16.1999959 12.6119779  9.2226470
Ar 12.3326260  6.2759138 12.2732025
Ar 16.2705898  6.5694041 12.2480803
Kr 15.7720656 10.1185491 11.3885033
Ar 11.8574742  8.9238993 15.1200167
Ar 14.5401362 22.7025161 19.0757389
Ar 15.6217606  4.8464484 16.9410871
Ar 14.5404943  8.8851599 19.7508974
Ar 11.3264001  7.9826337 20.3121408
Ar 13.0794252 12.3710567  0.2038134
Ar  0.7054489 11.6568063  4.0939057
Ar 15.1893534 14.0739906  2.5329122
Ar 11.0495698 16.0293672  3.7947823
Ar 12.0221329 12.8029268  3.3459641
Ar 14.3085655 13.1225761  6.1741311
Ar 17.0915746 15.6357153  5.9633045
Ar 11.3494290 14.4260753  6.8821173
Ar 13.3708687 13.0975264 10.9972673
Ar 17.1071078 12.9611857 13.1475329
Ar  9.8974791 14.6036053 16.4391673
Ar 16.2534238 14.8378457 15.7341815
Ar 13.1162481 13.2993611 14.4096342
Ar 16.9682988 12.1995543 22.5758310
Ar 11.6421348 15.1530300 20.7125591
Ar  6.6962254 17.6926142 21.8801698
Ar 12.8248780 17.5710844  0.2054545
Ar 17.4002046 19.0272376  2.3360408
Ar 13.5452383 20.2695518  2.1788289
Ar 14.2614041 17.3263269  3.5503602
Kr 14.4606342 16.3002788  8.3669772
Ar 17.0959444 16.1286375 11.1862401
Ar 13.9205323  0.1216935  4.4080038
Ar 11.7928350 18.3411871  6.8005994
Kr 11.1940026 16.6703676  9.5162985
Ar 10.6378831 17.2189861 13.7230522
Ar 12.9142467 20.9548145  9.2390394
Ar 13.1449375 17.4155106 15.9936607
Ar  6.2827799 15.6744873 15.5087788
Ar 12.1428555 18.9943835 20.1057788
Ar 14.7777455 16.2747959 19.0307971
Ar 10.1065983 18.6744598 17.6345391
Ar 17.3871132 22.4804367  0.4049506
Ar 20.4968110 21.4344461  4.0148905
Ar 17.7719976 22.2706561 20.0106688
Ar 17.1516141 22.2518260  4.8883538
Ar 16.4873923  3.4262634  6.8443632
Ar 22.3362920  1.2371880  6.5447483
Ar 19.9888034  1.9872434  4.2232271
Ar 20.2913400  4.3605393  7.0711073
Ar 14.8231944 19.2564544  5.9426164
Ar 19.6119769  0.1501011 14.2996826
Ar 17.4859060  3.4267976 12.2751862
Ar 21.4971307  2.7250056 15.3601386
Ar 19.6412394 21.3806700 17.2078962
Ar 15.1317756 19.8488328 21.2079805
Ar 21.7551641  4.0396800 18.7533272
Ar 18.2627183  1.9517716 17.9740860
Ar 15.5094458  9.5943235  1.3360004
Ar 18.8737793  2.4370662  0.6781937
Ar 18.3544362  8.8424913 20.4294999
Ar 19.2105653 10.0481993  1.6980763
Kr 14.2580992  6.8903541  9.4756298
Ar 22.2973225  6.1984714 14.5256034
Ar 17.6612777  7.2561708  5.0274040
Ar 19.4819452  6.1744746  9.9779919
Ar 18.6433621  5.1971252 15.1298908
Ar  1.5354133  4.4994930 16.8322158
Ar 21.5657000  8.1642087 11.9976797
Ar 15.2279751  9.7097643 14.9475882
Ar 18.1455775  5.6606819 19.4378427
Ar 16.2748095  2.1274287 20.8650575
Ar 19.2004328  9.6634482 13.8364694
Ar 17.9244716  8.0208777 16.5552447
Ar 16.0830578 12.2364298 17.8336798
Ar  1.3904530 12.6134361  1.1582583
Ar 21.1558211 12.5744741 21.3562120
Ar 17.2784168 11.8067744  4.3793614
Ar 15.1370424  9.1860740  5.6838470
Ar 18.8392616  8.7623495  7.9534994
Ar 22.0991781  8.0695007  7.8362981
Ar 13.8461054 18.2327350 11.9053620
Kr 19.7536756 11.5880587 10.9947133
Ar 19.8739327 16.4300688 13.8971368
Ar 21.1336037 15.3436709 10.6012863
Ar 13.7407040 21.0577581 13.6441745
Ar  0.3374729 10.0386942 14.9730807
Ar 21.7647688 15.9078168 20.6733116
Ar  2.5436660  9.0137525 18.8511928
Ar 18.1423264 14.3805291 19.8307937
Ar 17.2223313 16.1810758 22.2171060
Ar 19.4850831 14.1835115  3.0822721
Ar 20.6312117 18.2036910  2.7411166
Ar 20.3911863 20.7613116 22.8757231
Ar 19.1769901 13.5629388  7.5699488
Ar 18.2281446 19.6352388 11.7809456
Ar 18.5011220 19.5130434  5.7579996
Ar 19.1583555  1.2500225  7.4516295
Ar 18.7529466 11.9386963 16.1430127
Ar 17.3199031 19.2033222 15.1997735
Ar 17.3544954  0.0335539 10.8696009
Ar 19.6719355 16.3271813 17.5854040
Ar 12.8267301 11.9951154 18.2768976
Ar 22.6712436 17.3073450 16.3242801
Kr  3.2080471 17.5887294 15.8422149
Ar 15.0289380 19.7092615 17.4176372
256
22.876152 22.876152 22.876152
Ar  2.0418347 22.3587059 21.0288157
Ar  2.5972210  2.9767384  3.0405095
Ar 22.1582170  4.7814507  2.0024768
Ar 20.8433641  1.1378110 20.7564316
Ar  1.7649061 21.3221643  5.7680205
Ar  6.4995320 19.1724106 13.7611422
Ar  3.0868302  2.2218505  6.1596358
Ar  2.6557388 22.7433119 10.4072737
Ar 19.8452634 21.0803809  8.3588737
Ar  0.1650881  0.1150477 13.9119492
Ar  7.4407125  0.1160839 11.5951014
Ar  2.0898763  5.4077561 12.4711991
Ar 20.6154149 19.8271594 14.2974853
Ar  0.4878800  0.7590466 17.8907343
Ar  3.2229534  2.3968530 18.7549613
Ar 20.4200779  5.0867966 21.7824457
Ar 22.1328118  8.1838913  3.8021241
Ar  0.7586129  5.5757124  6.4128580
Ar  2.7573382  7.3015507  2.5317778
Ar 21.8500816  8.0297533  0.1001002
Ar 21.9405214  1.1801317  1.2148798
Ar  1.0605942  3.0469578  9.3349921
Ar  8.1211775  9.4763744  2.9610037
Ar 21.8928345  4.3861352 11.6682237
Ar  6.9749587  8.4646965  8.7922437
Ar  5.6830165  6.7477459 15.2386650
Ar  6.3098317 10.5578075 11.5100658
Ar  4.0239951  8.4510814 12.8679899
Ar  0.8010465  6.3304514 21.0540471
Ar  2.6196952 10.1869445 22.2915256
Ar  3.7787340 10.6458477 15.6696875
Ar 21.3022707  7.5589152 17.5458283
Ar 21.4364666 10.3456009 19.0417510
Ar  1.9584196  8.6033062  5.8104306
Ar  1.6544549 13.4988939 20.4227992
Ar 21.5718205 14.8336812  5.6145010
Ar 20.5254461 11.5802469  5.1996518
Kr  6.2872601 11.1869417  6.3996747
Ar  1.5473127 18.1243032  4.0439062
Ar 22.3404622 12.1407552  8.1265369
Ar  3.2097478  5.8788643  8.8750153
Ar  2.7390373  9.9398599  9.4507774
Ar  3.7141948 15.9273167 11.2419688
Ar  1.1623038 15.6058091 13.7579605
Kr  1.8867719 12.0821872 12.4072498
Ar  4.3342177 15.1912272 20.6408197
Ar  1.4866144 16.2442767 18.9061255
Ar 17.7156475 18.5112483 19.2129340
Ar  0.9448780 16.2007750  1.0509159
Ar  4.9192268 19.7361622  4.4326391
Ar  5.0483560  0.1124546  3.3696981
Ar 21.9806311 18.1337931  7.1169736
Kr  1.3900886 15.5105945  8.1102978
Ar 18.6993058 17.7685400  8.5275124
Ar  4.7845521 21.5801391  7.5329717
Ar 21.2670618  1.2533045 10.7290872
Ar 21.6742418 19.4402331 11.0450578
Ar  3.3884099 13.8863156 15.9857234
Ar  1.8910533 19.0180252 10.2584129
Ar  2.0780953 18.1762136 21.3475019
Ar 21.1193411 13.6652908 15.6583126
Ar  0.9180277 21.1635754  0.9756071
Ar  3.6981596 21.7708381 17.8728493
Kr 21.8503349 19.4675838 19.4481439
Ar  4.5183252  0.7597910 22.6832220
Ar  6.8455196  3.0198277  1.3210395
Ar  6.7683006  3.4314509 19.7286055
Ar  3.8938088  4.7793635 22.2717563
Ar  7.8925245  0.9771618  5.0090020
Ar 14.4098848  1.1619561  7.9014294
Ar  5.3169099  4.5338015  4.1660195
Ar  4.9884027  2.2812970  9.2770864
Ar  5.5117409  3.2370891 12.7499831
Ar  8.8414194 18.8136737 11.2090300
Ar  7.9272632 21.3668645  8.3914746
Ar  3.4138636  2.1038857 14.8078411
Ar  0.7687433  2.7930236 21.4667218
Kr  8.5041331 20.6905295 19.7553763
Ar  6.3827562  0.1009679 15.0869274
Ar  4.6867289  6.7507510 19.1048183
Kr  6.2838594 11.3793346  0.4169227
Ar  7.2144779  7.3913919 21.9369218
Ar  9.9099019  8.9042662  0.3796580
Ar  3.9292689 11.4103892  3.1361279
Ar  5.2458435  7.7936556  5.3272933
Ar  9.3533140  2.6402895 10.0909558
Ar  6.2455117  6.7236250  2.0443031
Ar  7.7311278  5.8536315 11.3296926
Ar 11.1190312  5.2421498  9.2133599
Ar  9.3681526 21.6780368 13.9005690
Ar  9.5161984  5.8033761 14.5262617
Ar  8.4346455  7.6877726 17.7226719
Ar  6.3152780  3.1838811 16.3623420
Ar  9.6441857  5.4095745  2.7529007
Ar 10.1466146  4.7816525 18.0393997
Ar  5.6229695  9.8022799 18.4796834
Ar  9.8001588 12.2681823 22.1013241
Ar  8.6327113 13.0180440  2.8151860
Ar  7.7790721 13.8624762 19.6121585
Ar  3.4533190 15.0363220  4.0922490
Ar 10.2488353 10.5113447  6.7760588
Ar 12.9137046 10.5742383  8.9574789
Ar  9.6731583 15.7429896  0.5298984
Ar  2.6239505 12.1597600  6.6958296
Kr  8.9940201  7.5124389  5.8055758
Ar  9.5482936  8.6577031 11.1890380
Ar  8.6381344 12.6665536 10.0561622
Ar  5.1433657 13.3574851 12.8615807
Ar  8.2866464  9.4272918 14.4335747
Ar  9.3777843 11.1654576 18.1370760
Ar  9.1672321 13.6870242 13.5069478
Ar  0.9979782 12.0340607 17.6869859
Ar  6.2841463 14.9253630  1.5041109
Ar 10.3266236 19.9211295  0.7679898
Ar  8.4995222  0.4621814 22.4327396
Ar  7.5567694 19.6636982  2.3217644
Ar  6.3201792 16.7787279  4.9140978
Ar  8.2221669 14.2519607  6.5524225
Ar  8.1995550 17.3639231  7.4995337
Ar  4.0509689 18.0473135  7.3177696
Ar  4.8030350 13.9013167  8.4616520
Ar  7.6201752 15.7544367 10.0967253
Ar  5.5798202 20.2481939 10.4906629
Ar  2.9991213 20.3215066 13.6941109
Ar  6.9790283 12.4772678 16.1473634
Ar  4.0919692 17.7316196  1.5833509
Ar  6.2044334 16.7408497 18.5319408
Ar  5.0202060 19.6280679 20.0675782
Kr 10.6151460  0.0235206  2.7473197
Ar 16.5321947  2.7034006  3.4830434
Ar 14.1654065  2.2213636  0.8133526
Ar 10.3862182  0.4411906  7.3886525
Ar  9.4188475 20.4194772  4.9724736
Kr 13.7167495  3.0915292 13.9289748
Ar 12.6872729  8.3132784  3.9886667
Ar  8.1648136  4.2415884  6.9971508
Ar 10.0938661  2.0841583 13.7634814
Ar 11.4558108 21.1231893 16.8542336
Ar 16.2794478  0.1814178 15.4817312
Ar 12.6240670  1.0288208 10.9472843
Ar  9.2832378  1.4348973 19.1957483
Ar 11.9296278  0.7145676 21.3774886
Ar 12.2907214  1.7755554 16.9988798
Ar  9.3138299  4.9741996 21.9090715
Ar 13.3268261  3.8423975 19.6976627
Ar 15.3898454  6.5915637  2.6490226
Ar 16.6071195  5.6456303 22.5862648
Ar 12.5416307  5.6136144  0.4597625
Ar 14.0632406  5.6482494  6.0449116
Ar 14.7464582  3.7162484 10.2478209
Ar 19.3570422  6.3221148  2.0706255
Ar 16.7522087 12.6686257  9.5297856
Ar 12.0157580  6.1997037 12.5736624
Ar 16.3992484  6.7782697 12.4263920
Kr 15.8069188 10.1861986 11.6734332
Ar 11.5568351  8.7826401 14.9158996
Ar 14.4359686 22.5540672 18.7384897
Ar 15.3015809  4.8123396 17.1900808
Ar 14.7050981  9.1219125 19.7420036
Ar 11.5648371  7.6085506 20.5772125
Ar 13.1546109 12.3741075  0.1718359
Ar  0.6455892 11.5303463  3.9625576
Ar 15.2996575 13.7359323  2.5599898
Ar 10.9007248 15.9810417  3.8236436
Ar 12.1930240 12.7835346  3.3504304
Ar 14.5548068 12.7987733  6.3887296
Ar 16.7982745 15.7232634  5.7635859
Ar 11.6018576 14.3699576  6.8613182
Ar 13.4496605 13.4336060 10.9300228
Ar 17.6080049 12.9304493 13.1795100
Ar  9.7425855 14.6531657 16.7266151
Ar 15.9655720 14.7048080 15.6505546
Ar 13.4748651 13.1410362 14.3715188
Ar 17.3292862 12.3946005 22.4250509
Ar 11.9023288 14.9060629 20.6196998
Ar  6.7483783 17.6366717 22.2084669
Ar 12.8454636 17.2179578  0.2116791
Ar 17.2374019 18.5685635  2.6912956
Ar 13.4974212 20.6608026  2.0306064
Ar 14.4109480 17.1507761  3.1545932
Kr 14.3762824 16.2914651  8.4225505
Ar 16.9921060 16.1162727 11.2360609
Ar 13.6259577  0.6203100  4.3121752
Ar 11.5545586 18.6894953  6.7512037
Kr 11.2778149 16.7800625  9.7700408
Ar 10.1122707 16.9630534 13.9074050
Ar 12.8629128 21.0857657  9.3961862
Ar 13.1678446 16.8398097 16.0462211
Ar  6.5464631 15.9301833 14.9340110
Ar 12.2920589 18.9770856 20.0636067
Ar 14.7109789 16.1776201 18.8333266
Ar 10.0850246 18.3832781 17.6572973
Ar 17.3962218 22.7268200  0.2612467
Ar 20.5593069 21.2928660  3.6064909
Ar 17.9670018 21.9941611 19.9896722
Ar 17.3802370 22.7496367  4.7572429
Ar 16.7083954  3.8431778  7.4688953
Ar 22.0626435  1.6428246  6.7342057
Ar 19.9426779  1.5848689  4.0997494
Ar 20.6371980  4.5608197  6.9423557
Ar 14.7847624 19.2585946  5.9289529
Ar 19.7158599  0.1270027 14.4073501
Ar 17.4591662  3.1546594 12.3379896
Ar 21.5455471  3.3137323 15.6698837
Ar 19.4700776 20.9915578 17.2984466
Ar 15.1177755 20.3169329 21.1682856
Ar 21.8612678  3.8359112 19.0615242
Ar 17.7587866  2.2239001 17.6464812
Ar 15.1832198  9.6628952  1.2521723
Ar 18.9548839  2.9291907  0.9716527
Ar 18.3191550  9.2709177 20.5442402
Ar 19.1788278  9.9990058  1.9390452
Kr 14.5462772  6.9512069  9.2865545
Ar 22.2232273  6.1643727 14.6775004
Ar 17.9133266  7.0874277  4.9963376
Ar 19.1321181  6.3331880 10.1601104
Ar 19.1192701  5.1184478 15.3219686
Ar  1.5398925  4.4101130 16.6401652
Ar 21.3726429  7.9002039 11.8308288
Ar 15.2624485  9.6181944 15.0201575
Ar 18.1459242  6.0144201 19.3576697
Ar 16.0128129  2.1705670 20.6101650
Ar 19.2500720  9.6222605 13.6576548
Ar 17.6847703  8.1939139 16.7092887
Ar 15.6576980 12.2497074 18.2282635
Ar  1.1590621 12.5716539  0.9058758
Ar 21.1237850 12.3542163 21.5999161
Ar 17.4140718 11.3330642  4.3297926
Ar 15.3170576  9.3924835  5.8933543
Ar 19.2269769  8.6600828  7.5851339
Ar 22.4272954  8.3040527  7.6198467
Ar 13.7411869 18.4493104 12.0280104
Kr 19.8682580 11.8160799 11.0482701
Ar 20.2282906 16.5676674 14.1169743
Ar 21.3122551 16.0579611 10.4483728
Ar 13.9379272 21.1313200 13.9844200
Ar  0.5587678  9.8378965 15.4958534
Ar 21.4476957 15.8016818 20.8385546
Ar  1.9949722  8.7793227 18.9465010
Ar 18.0006796 14.1290104 19.7130756
Ar 17.1973879 16.6853459 22.0049961
Ar 19.6750170 14.0134354  3.1374747
Ar 20.6102907 17.8405223  2.7542330
Ar 20.2162295 20.5838489 22.3543743
Ar 19.0016891 13.4588441  7.6631151
Ar 18.3917882 19.7947790 11.4465460
Ar 18.1845406 19.4552163  5.9110595
Ar 18.7683586  1.4489138  7.5056898
Ar 18.5800485 11.8503503 16.2366347
Ar 17.1336974 18.8744020 15.3340628
Ar 17.1183551  0.2738264 10.3859598
Ar 19.9453206 16.8479792 17.7217481
Ar 12.3050778 12.3694133 18.1902812
Ar 22.5899253 17.7332195 15.9877280
Kr  3.4316384 17.5747098 15.6564567
Ar 14.5276744 19.7622190 17.3219091
256
22.876152 22.876152 22.876152
Ar  2.0839669 22.3990640 20.9315110
Ar  2.5482709  2.8180363  2.8090978
Ar 22.6070447  4.7010285  1.9242274
Ar 20.7857816  0.7159231 20.3992173
Ar  1.6892369 21.4421906  5.9895362
Ar  6.2525031 19.1384681 13.7943345
Ar  2.6991131  2.0489169  6.5257857
Ar  2.7930751 22.4602740 11.0478034
Ar 19.6448166 21.0839576  8.0994462
Ar  0.1240438 22.7356801 13.6249831
Ar  7.5274982  0.4609258 11.5786053
Ar  2.1318388  5.5310678 12.4605123
Ar 20.9271835 20.2922934 14.1804171
Ar  0.5625623  0.6999022 18.2238104
Ar  3.4293944  2.8671860 18.7995866
Ar 20.6564512  4.8443023 21.8315342
Ar 21.5535159  7.9858849  3.5756280
Ar  1.2464105  5.5047521  6.3371183
Ar  2.5697272  7.0807392  2.2191258
Ar 21.7946159  7.9685431  0.2629315
Ar 21.7393596  1.3001892  0.9102424
Ar  1.1549437  2.7357275  9.4516126
Ar  8.1971079  9.5972248  2.9595066
Ar 21.8951155  4.5302749 11.9192768
Ar  7.2361463  8.6806903  8.9395486
Ar  5.9418298  6.4668941 15.5063918
Ar  6.1314435 10.4883033 11.5796204
Ar  4.2720837  8.1262678 12.5919475
Ar  1.2305833  6.4419271 21.1647496
Ar  3.0731910  9.7625461 22.2843519
Ar  4.4769481 10.5921020 15.4169308
Ar 21.0414638  7.3023900 17.5892345
Ar 21.0572562 10.4024208 18.9541036
Ar  2.5348770  8.7506213  5.8528551
Ar  1.6625520 13.2456629 20.5673982
Ar 21.9192887 14.8082403  5.5360285
Ar 20.4273754 11.4809310  5.3059797
Kr  6.3215920 10.9461235  6.1185519
Ar  1.3242736 18.1830440  4.0140176
Ar 22.7689701 12.2368072  8.1743208
Ar  3.4785032  5.6488761  8.8850688
Ar  2.9428895  9.4352153  9.3144724
Ar  4.0741811 15.8608875 11.5153840
Ar  1.1319107 15.5961469 13.7515223
Kr  1.8308515 11.9865048 12.0449138
Ar  4.2708447 15.3567835 20.9006794
Ar  1.3113321 16.5927370 18.6295732
Ar 17.2893437 18.5265787 18.9405118
Ar  0.6361160 16.4243815  1.3116988
Ar  5.0219831 19.8564113  4.4953375
Ar  4.7832758 22.8215669  3.3876130
Ar 21.9559847 17.7710175  6.6707540
Kr  1.4425664 15.3979558  8.3721608
Ar 18.2331160 17.8673574  8.6583642
Ar  4.7401032 22.2382532  7.5700286
Ar 21.3244817  1.1770807 10.7643281
Ar 21.7066883 19.5892421 11.2430946
Ar  3.5357216 13.8908252 16.3318365
Ar  2.0182315 18.6655684 10.6822087
Ar  1.9781703 18.0725379 21.7377122
Ar 21.1966599 13.2275873 15.6700271
Ar  1.2699397 20.9879436  1.4188805
Ar  3.5822296 21.8156351 17.3726503
Kr 21.8599610 19.5470784 19.3841498
Ar  4.3767545  0.8905723  0.4083985
Ar  6.8987178  3.2191989  1.3980104
Ar  7.2313678  3.6450729 19.8230517
Ar  3.6942407  4.6276997 22.3718119
Ar  7.6348184  0.9625215  5.3295357
Ar 14.5845221  0.9164539  7.7530860
Ar  5.4616744  4.1119542  4.2400063
Ar  4.5599199  2.1812132  9.3599697
Ar  5.9115656  3.1483292 12.4636229
Ar  8.3486889 19.2158189 10.9814643
Ar  8.0309375 21.4069705  8.5861371
Ar  3.3145684  1.8425779 14.8353569
Ar  1.1062991  2.8159371 21.6786482
Kr  8.7736385 20.5904394 19.7419351
Ar  6.2297052 22.4636407 15.3878166
Ar  4.3613626  6.4063196 18.7529553
Kr  6.2361893 11.6696554  0.4208748
Ar  6.7588865  7.6375948 21.6285362
Ar 10.1521234  8.8549566  0.2559348
Ar  4.2050939 11.4927177  2.9836864
Ar  5.5000025  7.7646660  5.6566854
Ar  9.5257125  2.8182128 10.3777246
Ar  6.3038995  6.6528103  2.0950751
Ar  7.6477833  5.2869041 11.0557482
Ar 11.2263530  5.6063385  8.9739756
Ar  9.2600651 21.6598585 13.9018591
Ar  9.2797503  5.6069799 14.6801313
Ar  8.2919969  7.6516774 17.6523347
Ar  6.4458280  3.2345029 16.2970893
Ar  9.5125513  5.3794300  2.2913646
Ar 10.4149606  4.8147575 17.9630025
Ar  5.9529727 10.0143372 18.2559957
Ar  9.9062415 12.5372219 21.8732610
Ar  8.4348966 13.0726499  2.9650437
Ar  7.5815051 13.7081363 20.0518763
Ar  3.5116355 14.4815557  3.8324059
Ar 10.3652859 10.6846096  6.7352271
Ar 13.3538386 10.4584048  8.6642922
Ar  9.2032284 15.7048581  0.7469299
Ar  2.6676777 11.9601004  6.5083142
Kr  9.0479260  7.3842405  5.7587667
Ar  9.7215386  8.9271169 11.0235144
Ar  8.5549062 12.5038428  9.6498900
Ar  5.6106095 13.4014132 12.8060079
Ar  7.9157750  9.5618455 14.2572229
Ar  9.1653533 11.0634836 18.3779369
Ar  9.1613729 13.7646306 13.1825463
Ar  1.1664152 12.0881694 17.3861496
Ar  5.8251281 14.8309427  1.5685383
Ar 10.8541579 19.6148195  0.9749814
Ar  8.0749141  0.6719346 22.2146037
Ar  7.5405595 19.8814969  2.3814324
Ar  6.2589746 16.7671151  4.7771367
Ar  8.0963765 14.0461127  6.6850497
Ar  8.3777157 17.4939524  7.3146113
Ar  3.6248460 18.0685692  7.2273321
Ar  4.9688538 14.0360080  8.6570910
Ar  7.5505928 15.9124145 10.3055178
Ar  5.4396846 20.4146084 10.6762330
Ar  3.1695090 20.3612787 13.4399763
Ar  6.8352873 12.7369720 16.2186059
Ar  3.7932033 17.9281021  1.3909500
Ar  6.3138046 16.4350782 18.1441380
Ar  4.9734549 19.6143196 19.9732251
Kr 10.4258349  0.1268243  2.9036545
Ar 16.6711236  3.1218440  3.3066811
Ar 14.2426790  1.8602922  1.0381908
Ar 10.1529864  0.7747993  7.4693958
Ar  9.4962143 20.4106693  4.8277470
Kr 13.8371028  3.1345587 13.9901887
Ar 12.2664693  8.2856957  3.8658291
Ar  8.3649490  4.0900984  6.7183312
Ar 10.2419575  2.6095054 13.6999697
Ar 11.1623611 21.2854669 17.2219746
Ar 16.3085498 22.8437476 15.6643500
Ar 12.3426071  0.9990459 11.0622181
Ar  9.2990753  1.1730578 18.9089432
Ar 12.1172826  0.7916671 21.1884497
Ar 12.2976463  1.3692924 16.7377288
Ar  9.0896496  5.1156172 21.9286550
Ar 13.1844506  3.8818568 20.0797316
Ar 15.3445433  6.6231138  2.7097515
Ar 16.5374487  5.4597463 22.4801687
Ar 12.4417399  5.6238849  0.4328852
Ar 14.2031843  5.7397421  5.7079177
Ar 14.5325200  3.3121435 10.6302242
Ar 19.1513973  6.6689429  1.6617923
Ar 16.6102718 12.7900283 10.0399815
Ar 12.0426908  6.1262671 12.6096791
Ar 16.5545222  6.8512083 12.8215457
Kr 15.7793769 10.1670065 11.9096093
Ar 11.4174255  8.7131596 14.8112073
Ar 14.3666480 22.7697932 18.5781193
Ar 15.0516654  4.8782670 17.2659699
Ar 14.9039520  9.2795853 19.7587943
Ar 11.7820347  7.2168865 20.5861503
Ar 13.3017675 12.3720977 22.7288491
Ar  0.5496982 11.3479282  3.9579468
Ar 15.6564410 13.4713882  2.5835219
Ar 10.6903302 16.1060051  3.8842485
Ar 12.2498764 12.6060630  3.6267688
Ar 14.9420262 12.5550953  6.5760848
Ar 16.5776090 15.8290861  5.4590281
Ar 11.8749303 14.3047029  6.9310642
Ar 13.5047213 13.9202741 10.8481651
Ar 17.8524877 13.1191660 13.3369294
Ar  9.6749583 14.7005659 17.1804654
Ar 16.0163269 14.8513321 15.7496845
Ar 13.5475661 12.7822743 14.3288557
Ar 17.6061639 12.5024000 22.4986178
Ar 12.1549094 14.7116145 20.4444022
Ar  6.9742956 17.5676367 22.5438884
Ar 12.9075998 16.9212216  0.0758437
Ar 17.2504261 18.3086468  2.8407880
Ar 13.6391254 21.0662842  1.8836514
Ar 14.2965162 16.6843928  2.9428698
Kr 14.5341132 16.2691951  8.4124397
Ar 16.8772546 16.0793814 11.3653617
Ar 13.4989526  1.1576892  4.3607102
Ar 11.4453286 18.8834320  6.7954220
Kr 11.1754297 16.7994576 10.1735493
Ar  9.7959961 16.8376729 14.2189397
Ar 12.8262012 20.8685480  9.4029469
Ar 12.9306168 16.2570885 15.8100250
Ar  6.8614791 16.0242216 14.4029928
Ar 12.4484734 18.9599313 20.2096971
Ar 14.8378263 16.0495897 18.8813128
Ar  9.6238231 17.6003127 17.4509082
Ar 17.2682237  0.0714726  0.5313151
Ar 20.7330892 20.9495002  3.1388584
Ar 18.0444955 21.8127204 19.8557059
Ar 17.2126767 22.7555922  4.7467939
Ar 16.8827944  4.6320072  7.9854757
Ar 22.2195787  1.7333977  6.9234346
Ar 20.0995437  1.7156839  3.8366720
Ar 20.5069577  4.9587135  6.8944548
Ar 14.7718793 19.4427165  6.0119883
Ar 19.5903382  0.4469821 14.4297365
Ar 17.5677782  2.9091999 12.5264366
Ar 21.6636425  2.8962018 15.9227507
Ar 19.3788746 20.5907616 17.1256914
Ar 15.2446360 20.7320977 21.3977383
Ar 21.7795719  3.8495457 18.9600381
Ar 17.5077187  2.6053569 17.3496641
Ar 14.9092353  9.8089632  1.1462222
Ar 18.9484554  3.3953861  1.2381333
Ar 18.2873690  9.7877494 20.7312060
Ar 19.2852976  9.9025547  1.9503933
Kr 14.8076716  7.3467674  9.0514981
Ar 22.3985824  6.5596944 14.5723427
Ar 18.0982285  6.8010417  5.0186978
Ar 18.5363448  6.2290847 10.1733910
Ar 18.9338977  5.3359071 15.4423407
Ar  1.8362877  4.6180748 16.4952329
Ar 21.5860950  7.8607308 11.5375232
Ar 15.0657817  9.6421190 15.2160607
Ar 18.0575289  6.1446413 19.1343741
Ar 16.0097809  2.2246000 20.5735526
Ar 19.1041566  9.4750328 13.7204279
Ar 17.5887229  8.3814812 16.9492125
Ar 15.2644885 12.1934234 18.6058221
Ar  0.7681148 13.0542051  0.7913847
Ar 20.9048559 12.3191012 22.1945420
Ar 17.2640716 11.1162009  4.2756571
Ar 15.5468293  9.3892319  6.4939763
Ar 19.2551850  8.8762588  7.3314068
Ar 22.5035153  8.6939962  7.9998149
Ar 13.6744588 18.4414724 12.0416610
Kr 20.1936096 12.0189433 10.9108571
Ar 20.2367083 16.3768134 13.9839140
Ar 21.4758723 16.5457188 10.2950875
Ar 13.9298267 21.3012013 14.2949671
Ar  0.2232648  9.2374745 15.6118849
Ar 21.0718903 15.7561981 21.0806666
Ar  1.2754430  8.7144104 18.8804026
Ar 18.1252931 13.9721270 19.2974256
Ar 17.0754671 17.2500132 22.1116817
Ar 19.6085997 13.9304495  2.7707073
Ar 20.7360234 17.3722666  2.7749096
Ar 20.0004619 20.3894953 22.0797203
Ar 19.3406169 13.7072490  7.3818507
Ar 18.2665883 19.9867435 11.2212177
Ar 17.9772627 19.4853411  5.6734122
Ar 18.4918898  1.4523318  7.6135045
Ar 18.1851606 11.5593361 16.6071693
Ar 17.0336889 18.4637002 15.3384448
Ar 16.8016930  0.3976830 10.0336361
Ar 20.2279916 17.0059918 17.7291537
Ar 12.0521728 12.7992346 17.9847263
Ar  0.0634576 18.3220974 15.8471255
Kr  3.6985365 17.5475387 15.6000580
Ar 14.1386659 19.4563624 17.2087030
256
22.876152 22.876152 22.876152
Ar  2.1842322 22.2296778 20.9086199
Ar  2.4176025  2.6341948  2.5906378
Ar  0.0836417  4.6657893  1.8790058
Ar 20.7734400  0.3682223 20.1396603
Ar  1.5329154 21.5054193  6.1614171
Ar  6.2937989 19.3510724 13.8265529
Ar  2.4713239  1.9583924  6.5865525
Ar  2.6657735 22.6789806 11.2910143
Ar 19.6680799 21.2123826  7.9805487
Ar  0.3833807 22.7121835 13.3654160
Ar  7.5272051  0.4742837 11.3883435
Ar  2.2906308  5.4225494 12.4438051
Ar 20.9195965 20.5589898 14.2085944
Ar  0.5794747  0.6612628 18.2602431
Ar  3.8092195  3.0965134 19.0446077
Ar 20.9522010  4.8636070 21.7838748
Ar 21.1971342  7.7621101  3.7930433
Ar  1.6489938  5.3196239  6.1091305
Ar  2.3946817  6.9054084  1.9288361
Ar 21.7962014  8.2817716  0.3176676
Ar 21.6143995  1.2430521  0.5927829
Ar  1.2824877  2.6527513  9.8602795
Ar  8.1782363  9.7115690  3.0924349
Ar 21.5615008  4.3217973 11.9779802
Ar  7.3272828  8.7379039  8.7966048
Ar  5.9300207  6.3553751 15.6147786
Ar  6.1147149 10.4884585 11.2776594
Ar  4.4548810  7.7048928 12.4561709
Ar  1.6812686  6.2850855 21.1323615
Ar  3.4927428  9.3184546 22.2706865
Ar  4.7796139 10.3659560 14.8440390
Ar 20.7706249  6.8463985 17.7103698
Ar 20.7606700 10.7744048 18.8509119
Ar  2.7499500  8.8377932  5.7038258
Ar  1.4253173 12.7656706 20.5596319
Ar 22.4598709 14.5125146  5.2014596
Ar 20.4631719 11.1811672  5.3348232
Kr  6.3918655 10.8557142  5.8603360
Ar  1.2182850 18.3684999  4.1626342
Ar  0.0491785 12.2643540  8.3365199
Ar  3.8751221  5.4914584  8.9942631
Ar  3.2183744  8.9502130  9.2387256
Ar  4.2384628 16.1499924 11.6855426
Ar  1.0523241 15.5083457 13.6779612
Kr  1.7772412 11.8949177 11.6884961
Ar  4.5097816 15.7385674 21.2519135
Ar  1.1502446 16.7994571 18.2554998
Ar 16.7955856 18.6195861 18.7020708
Ar  0.4246091 16.4245929  1.4468462
Ar  4.8914064 19.7957512  4.8219711
Ar  4.5009934  0.0418703  3.7103511
Ar 21.8004032 17.8368711  6.4493313
Kr  1.5652567 15.2997943  8.6495375
Ar 17.8300014 17.6478334  8.7950411
Ar  4.7443548 22.6494248  7.4577440
Ar 21.1671123  0.9502877 10.7836621
Ar 21.8221899 20.0695198 11.0353848
Ar  3.8842410 14.2560870 16.5587550
Ar  2.2179491 18.3082319 10.9243652
Ar  1.7050837 18.2757329 21.6111352
Ar 21.2873181 12.8586526 15.6090252
Ar  1.6272808 20.8123696  1.8903980
Ar  3.2635968 21.7943844 16.9662657
Kr 22.0587642 19.6711418 19.3144471
Ar  4.2535609  1.1163531  0.4787989
Ar  6.9710139  3.3357192  1.3401518
Ar  7.1488083  3.9091863 19.7353665
Ar  4.0619310  4.5107154 22.6717046
Ar  7.2030816  0.8801873  5.5194688
Ar 14.5673658  0.7078792  7.4016968
Ar  5.5203263  3.6507272  4.6839952
Ar  4.4462241  2.2488516  9.6102430
Ar  5.8666394  3.0515511 12.6164316
Ar  8.3556975 19.3510273 11.0410978
Ar  8.1011628 21.4605773  8.4917154
Ar  3.1441111  1.5214810 14.8359154
Ar  1.2695948  2.7202735 21.8275051
Kr  8.9490479 20.4163112 19.8655467
Ar  6.2083392 22.0354645 15.5988142
Ar  4.0942226  6.1687309 18.4808218
Kr  6.3377497 11.8263907  0.1521518
Ar  6.1779755  8.0569984 21.1691770
Ar 10.4653672  8.8174495  0.0873820
Ar  4.2735070 11.1165595  3.0704213
Ar  5.9304656  7.2019070  5.8915386
Ar  9.8374110  2.9128047 10.3761862
Ar  6.2650943  6.7629779  2.1069711
Ar  7.6223776  5.4695681 10.6027717
Ar 11.3711855  6.0536648  8.6838993
Ar  9.4164794 21.4660183 14.0329299
Ar  8.9077733  5.5902062 14.8997037
Ar  8.3214438  7.5674602 17.6817637
Ar  6.6387466  3.1205357 16.2635338
Ar  9.5064744  5.4131863  2.2840729
Ar 10.6974244  4.7525142 17.8958202
Ar  5.9812166 10.1648611 18.3587088
Ar 10.1146095 12.5465050 21.9051857
Ar  8.3876595 13.1071137  3.3064972
Ar  7.0782922 13.7195642 20.3426630
Ar  3.1734510 14.3044189  3.9054676
Ar 10.4408106 10.9481339  6.6570124
Ar 13.4475622 10.5883921  8.6974512
Ar  9.1607319 15.4237083  0.9856068
Ar  3.0501204 12.0859083  6.3682574
Kr  9.1977244  7.2694975  5.7069133
Ar 10.1491499  9.2116151 11.0346022
Ar  8.5322622 12.1846689  9.3924331
Ar  6.0202671 13.1592408 12.9627711
Ar  7.6844352  9.6293169 14.2405424
Ar  9.1074583 10.8577215 18.6618175
Ar  9.2816606 13.5196119 12.7623923
Ar  1.1402760 12.0143890 17.2376571
Ar  5.3854165 15.0305205  1.4805239
Ar 11.1405008 19.2328752  1.0707807
Ar  7.6820217  0.7905460 22.0181875
Ar  7.3693550 20.0747136  1.9927902
Ar  6.2065094 16.5197657  4.4882930
Ar  8.0130793 13.8918245  6.6044031
Ar  8.5595633 17.8791724  7.1214251
Ar  3.2193177 18.1231573  7.1939389
Ar  5.1543860 14.0842619  8.7935113
Ar  7.3998130 15.9126324 10.7591509
Ar  5.0370856 20.5273134 10.7174820
Ar  3.1396169 20.3060089 13.6695712
Ar  6.8196959 13.0773491 16.2451200
Ar  3.8729927 18.1542031  1.6131793
Ar  6.3905689 16.1689534 17.7119599
Ar  4.9137393 19.5719047 19.9048150
Kr 10.2157325  0.3630985  2.9073827
Ar 16.3717401  3.6151230  3.5550491
Ar 14.2477569  1.6406937  1.1437223
Ar 10.3688905  1.2340053  7.5456267
Ar  9.3733841 20.4733881  4.9226809
Kr 14.0282755  3.1894027 14.1370990
Ar 11.8205217  8.3239168  3.7028209
Ar  8.5370518  3.8664433  6.5511978
Ar 10.3851195  2.8931408 13.7085380
Ar 10.9000011 21.1683638 17.3836225
Ar 16.6020284 22.6919167 15.9320929
Ar 11.9643255  0.7054000 11.3400443
Ar  9.4861430  0.8962129 18.4611769
Ar 12.2289102  0.7250949 21.0717190
Ar 12.0585281  1.4794676 16.2378808
Ar  9.2228764  5.2810484 21.9158025
Ar 12.8330618  4.0210959 20.4679062
Ar 15.3613832  6.7023357  2.6087842
Ar 16.3713552  5.2430510 22.2354616
Ar 12.5532561  5.4875164  0.6762300
Ar 14.2351938  5.7259230  5.5625028
Ar 14.5277721  3.2425276 10.7066611
Ar 18.6180655  6.8524388  1.2744299
Ar 16.6074056 13.1278510 10.1422500
Ar 12.2227068  6.0092028 12.4315503
Ar 16.5773842  6.7691750 13.3983500
Kr 15.6928061 10.0811356 12.0979839
Ar 11.2921246  8.7415503 14.7977241
Ar 14.5770570 22.7878175 18.6758257
Ar 14.7116304  5.1153935 17.2570890
Ar 15.0072279  9.0080723 19.9227931
Ar 11.9645493  7.0567730 20.2014413
Ar 13.4787776 12.4813661 22.3735612
Ar  0.5902540 11.1094473  3.7597033
Ar 15.9320742 13.3785152  2.4956417
Ar 10.4819306 16.2929683  4.0476914
Ar 12.2661756 12.3829070  3.9152225
Ar 15.3779714 12.7645102  6.6961042
Ar 16.5247872 15.8807718  5.1938408
Ar 12.0185436 14.2308338  7.0291246
Ar 13.4074163 14.3102933 10.8838172
Ar 18.0361323 13.3412128 13.6092761
Ar  9.2916475 14.1380040 17.4544693
Ar 16.2917027 14.9978465 15.9405394
Ar 13.4864528 12.3958216 14.2340134
Ar 17.4952491 12.7849925 22.7573155
Ar 12.2154811 14.7909441 20.3857336
Ar  6.8795745 17.8478840 22.5471881
Ar 12.9321376 16.6739724 22.7167752
Ar 17.3223629 18.0464907  2.5405162
Ar 14.0385893 21.4993974  1.8666256
Ar 14.0259868 16.1879712  3.0817250
Kr 14.7514070 16.3230052  8.3677516
Ar 16.7537190 16.1025861 11.6461398
Ar 13.4659821  1.7310315  4.5125648
Ar 11.6754370 18.7380473  7.1222729
Kr 10.9833605 16.7947943 10.5498233
Ar 10.0642665 17.1668313 14.2406252
Ar 12.8376071 20.5804249  9.4014724
Ar 12.5999662 15.7063753 15.5518983
Ar  6.7402765 15.9517695 14.1645747
Ar 12.4486277 18.9685339 20.2892114
Ar 15.0375659 15.9098338 18.9992847
Ar  9.2234664 17.9063340 17.5163239
Ar 17.2657422  0.2704296  0.8735132
Ar 20.8969914 20.6182511  2.6818852
Ar 17.7697220 21.9063999 19.7250549
Ar 16.8441417 22.6291637  4.7058397
Ar 16.7370124  4.9864070  7.8862902
Ar 22.0926914  1.6444746  6.9400299
Ar 20.3981035  1.8847527  3.8740890
Ar 20.3705766  5.3658260  6.9280816
Ar 14.5713315 19.6608107  6.0711597
Ar 19.3284558  0.9028459 14.4387574
Ar 17.6897494  2.7896117 12.7236269
Ar 21.8238107  2.2874308 15.7908520
Ar 19.2535463 20.2394451 16.7779256
Ar 15.2820194 21.0552304 21.7525292
Ar 21.8223220  3.9694660 18.8039880
Ar 17.5143314  2.9669248 17.1520494
Ar 14.7824493  9.8112635  1.1235891
Ar 19.0002717  3.5631921  1.2191561
Ar 18.1939226 10.0573823 20.9114392
Ar 19.4076151 10.1447149  1.7580728
Kr 14.9802798  7.4920407  9.1823282
Ar 22.3973603  6.2267125 14.3138481
Ar 18.1037372  6.4254104  4.8984043
Ar 18.4175210  6.4182098 10.5782414
Ar 18.6243327  5.5866691 15.4677501
Ar  2.1045873  5.0290507 16.2388534
Ar 21.8170600  8.0549009 11.1684533
Ar 14.6601178  9.6725577 15.5907293
Ar 17.9902510  5.8891835 19.2835910
Ar 16.3090336  2.1785340 20.6936824
Ar 18.9772530  9.3118238 13.8251620
Ar 17.5182917  8.3866617 17.0778605
Ar 15.0502224 12.4306012 18.8855772
Ar  0.6521833 13.4024055  1.0905222
Ar 20.6907997 12.1402256 22.5814830
Ar 17.0865473 10.9198669  4.2407504
Ar 16.0058618  9.1867804  6.4972612
Ar 19.0591040  9.1592487  7.3275685
Ar 22.7126480  9.0131073  8.3942968
Ar 13.7448906 18.4218606 12.1392329
Kr 20.5960179 12.1844363 10.7266086
Ar 20.1715975 16.1947058 13.7821084
Ar 21.5109997 16.6456290 10.0885590
Ar 13.5025904 21.3294937 14.3204887
Ar  0.0487747  9.4567080 15.7124744
Ar 20.7206461 15.7614035 21.3527109
Ar  0.7325338  8.8238097 18.7552362
Ar 18.4098888 14.0117417 18.8858306
Ar 16.9299861 17.7372669 22.3021563
Ar 19.4746731 13.8402380  2.3243180
Ar 20.5439850 17.0026095  3.0033823
Ar 19.7454834 20.1413104 22.2655066
Ar 19.4205135 14.1551562  7.3960023
Ar 17.9986258 20.2823009 11.2426346
Ar 18.1493660 19.6132443  5.4433217
Ar 18.5341683  1.6714638  7.3862999
Ar 17.7879348 11.5829084 16.9515266
Ar 16.9729300 18.0546486 15.2141296
Ar 16.4462116  0.2593497 10.2813590
Ar 20.4356453 16.8651007 17.5780029
Ar 12.2651072 12.7179784 17.4108547
Ar  0.6097571 18.9076731 15.7712884
Kr  3.9220578 17.4910840 15.6378893
Ar 13.8461240 18.9996487 17.0884430
