2048
45.75230400 45.75230400 45.75230400
Ar 3.59068670 0.22410490 21.37152080
Ar 3.15904480 3.29829170 1.60891960
Ar 1.23787410 5.67684090 0.36065900
Ar 22.65009780 1.86108260 22.77293530
Ar 2.12037410 22.42774720 3.83090410
Ar 5.56770420 22.13696150 12.65986250
Ar 3.91823190 3.12193610 4.98789590
Ar 2.52758120 2.79542450 7.89152310
Ar 19.47023640 19.52917070 10.00424310
Ar 1.19862530 1.47735010 12.40115550
Ar 2.97187010 22.87349930 10.24888580
Ar 2.48149780 4.61861920 11.42827540
Ar 22.82649070 21.13645210 15.87796350
Ar 0.50017150 0.44676500 19.27151210
Ar 0.99669390 2.18841580 16.34539360
Ar 20.55034780 4.49334840 21.53943760
Ar 20.71109160 6.16321710 1.47970920
Ar 2.98847300 6.41202340 3.07649180
Ar 2.24771580 9.47533260 1.29353590
Ar 22.66063900 9.70910670 3.66414330
Ar 0.47186470 2.99169510 3.66590380
Ar 1.55346540 6.07304300 7.26775920
Ar 7.63995520 9.83428840 6.41617790
Ar 21.72390340 5.68439930 9.56780570
Ar 4.10788240 7.35764130 9.46461360
Ar 4.92471300 5.58218910 13.91913280
Ar 5.95436290 10.07988970 12.35835510
Ar 1.36900360 7.37087950 12.59987710
Ar 0.93005110 4.60055190 19.20396870
Ar 2.47227010 9.40059900 20.45691850
Ar 3.63361660 9.21903370 15.34617450
Ar 21.14804670 7.42545120 19.04465030
Ar 22.34897210 11.09251460 20.47474230
Ar 2.58073690 8.97260790 5.87466840
Ar 22.72198080 12.67734970 0.66844250
Ar 21.37200760 15.82398080 4.55782650
Ar 17.69585720 8.39023430 6.92148560
Kr 4.72856100 10.94344370 8.14411110
Ar 3.48945540 15.31582390 5.18744180
Ar 1.30191730 12.55068130 7.35940260
Ar 0.22630760 9.53438460 9.88317790
Ar 2.14335260 12.54072710 10.50072260
Ar 2.79853810 16.21800430 11.57524260
Ar 22.54677760 13.87306940 12.79944710
Kr 0.03566730 10.87328500 14.53297570
Ar 2.74217960 12.46997760 21.66969790
Ar 3.74531480 15.85005120 19.02709800
Ar 20.11399990 16.96064010 21.05431360
Ar 1.45038550 16.14854850 2.04977540
Ar 3.66284650 18.29080760 3.19725280
Ar 5.82999310 22.48884530 3.13417830
Ar 0.21900900 19.69827930 4.12063140
Kr 0.57241780 17.14092240 7.19518420
Ar 20.99905100 16.25942600 9.14938700
Ar 4.50729070 20.59435780 5.38267110
Ar 21.49417380 22.64251950 7.78399240
Ar 22.44330420 18.44262160 11.13665790
Ar 1.81078720 15.69982940 15.04996860
Ar 2.71405280 19.63228010 8.74712440
Ar 2.79709060 17.21633660 22.35614280
Ar 22.27967510 13.64866050 15.93490760
Ar 3.30457720 20.75792480 0.85617940
Ar 3.84939510 22.61416030 16.59334730
Kr 0.45924910 19.66541090 22.35582480
Ar 5.12193390 18.80837990 20.64866110
Ar 8.76877860 2.37290240 0.52003300
Ar 8.04848620 2.85414220 18.97057830
Ar 6.43842520 5.19317910 0.53631990
Ar 4.98774180 0.65058210 7.23482570
Ar 12.95144280 0.06773580 7.87206790
Ar 7.20735510 3.82791700 4.30681670
Ar 5.30695870 4.02907420 9.05900790
Ar 7.34139730 2.68948470 12.45970180
Ar 7.89104210 19.24022650 12.83653730
Ar 9.97902420 21.84701180 7.53922610
Ar 4.28478300 2.38567900 14.31481560
Ar 3.62303770 3.42447960 21.04151360
Kr 8.74723670 22.36592970 19.75921290
Ar 7.06892530 1.29146070 16.13032750
Ar 5.09629010 6.35968110 20.76539730
Kr 5.35876300 9.05233000 22.27535980
Ar 9.93800490 5.41546950 22.56724830
Ar 8.85247600 8.99075580 22.33025250
Ar 5.80396920 9.08956830 3.11459490
Ar 5.79339720 6.57674230 6.33177860
Ar 7.80386040 22.87494260 10.40800380
Ar 8.53354620 6.87169860 4.19315860
Ar 7.40727260 6.43140070 10.88442410
Ar 11.44424340 5.19439580 10.00302490
Ar 10.27801200 21.79451270 13.92535730
Ar 8.59576690 4.01940020 15.31877170
Ar 8.08279320 7.78244530 15.41175800
Ar 5.62246670 4.72015920 17.68702040
Ar 10.96830940 4.44961600 3.27163680
Ar 9.92950650 5.94077560 17.73847680
Ar 7.20233350 7.96025800 18.82062700
Ar 7.69000940 13.04797950 1.71116400
Ar 11.76820590 14.25575070 1.81874550
Ar 9.43704200 14.53710220 21.72982140
Ar 5.26399890 12.20995610 4.77757400
Ar 9.28232480 13.10175530 5.63227160
Ar 11.67138520 11.08839230 7.54810910
Ar 8.39332870 16.23537540 1.53801720
Ar 3.92650990 14.74633470 8.65790010
Kr 8.88872540 9.58564670 10.09910020
Ar 9.77939930 9.76796690 13.30809420
Ar 8.07873860 12.72752180 9.38190260
Ar 3.00167950 12.27447470 13.86144170
Ar 6.04673960 10.97642850 16.04946850
Ar 9.13502710 10.64916780 18.06387350
Ar 8.15218590 13.19525660 13.88229570
Ar 2.74400720 12.38400330 18.37010940
Ar 4.59447330 14.45166470 1.49976060
Ar 11.65293630 17.80188520 22.44417730
Ar 9.78339460 21.29093090 22.65958960
Ar 6.53369460 19.23607070 1.02514300
Ar 6.82510520 15.81240470 4.96270420
Ar 8.08047360 15.91108230 8.21312840
Ar 8.03386760 18.98666910 5.25212230
Ar 5.31073770 18.05748400 7.61059850
Ar 6.05992600 15.30167120 11.77138740
Ar 5.56852230 17.22530680 14.40338870
Ar 7.00686530 19.66151500 9.74737380
Ar 2.32309680 19.71642050 12.59608230
Ar 6.97089740 11.96017300 21.31175380
Ar 6.01986250 15.83984650 21.83936000
Ar 6.71109770 20.13859040 17.11113810
Ar 1.82214680 19.38595650 19.12348710
Kr 12.65066020 0.08885140 0.71249090
Ar 15.31969670 2.38480140 2.98912670
Ar 15.80928410 3.42924640 22.65231830
Ar 9.67561930 1.44818510 4.22515460
Ar 10.26592570 20.78879440 2.94468250
Kr 13.61689620 2.44109150 10.28746820
Ar 10.45249980 7.36806840 7.23159210
Ar 9.26344940 3.03977470 7.21792650
Ar 10.66553300 2.14733440 12.97515860
Ar 13.80324590 22.45059840 15.65817410
Ar 16.20413200 0.03837370 12.56225230
Ar 12.59385610 22.34806220 11.68529860
Ar 10.81103500 0.89300950 17.28521980
Ar 13.76469500 22.05159790 19.04613690
Ar 14.36869850 3.43399780 14.43016180
Ar 10.94226830 1.61883850 20.96879860
Ar 13.15907290 5.41123460 21.60342620
Ar 15.39744730 8.59897860 4.67244060
Ar 15.01228940 8.55645970 20.42974720
Ar 12.15379650 8.39809300 1.55491330
Ar 12.76520700 4.93197510 6.12537090
Ar 17.19992560 3.81108470 10.83756000
Ar 16.83470470 5.62853640 3.79100670
Ar 13.45505390 13.45069040 8.97146090
Ar 11.91072350 5.40567390 13.42460970
Ar 15.74872730 6.59610470 12.57572600
Kr 12.92236070 9.23443550 12.21804640
Ar 11.80051620 8.02143760 15.86434850
Ar 13.59148610 3.16984520 18.00427310
Ar 14.31423970 6.43776190 17.88546650
Ar 13.33246210 10.64270880 18.17745820
Ar 11.84730300 8.74706940 20.73904040
Ar 11.24898080 11.72532990 22.70517860
Ar 19.37157410 11.58984580 4.51005770
Ar 15.72064660 13.75033170 1.25809180
Ar 11.49355340 17.33999740 3.36158960
Ar 9.70399750 10.91864420 3.31005610
Ar 12.26351190 15.01963710 5.62270540
Ar 17.90246950 16.87702320 6.96709190
Ar 11.16784390 17.08597220 8.60065880
Ar 11.24791740 12.50645110 11.49661060
Ar 15.26979150 13.07731560 13.20520930
Ar 10.76873250 14.11223140 16.50575490
Ar 13.59070470 16.35761620 14.53585230
Ar 12.51267210 11.46183950 15.20437790
Ar 15.05146880 12.32688050 20.88529860
Ar 12.24658970 13.39690770 19.74150490
Ar 9.19665310 18.57255360 19.65282580
Ar 14.07822070 15.63180300 21.99374360
Ar 18.52178710 17.59775250 3.89121700
Ar 13.65001780 19.71496250 1.29814950
Ar 15.21205740 18.38939520 4.48702700
Kr 14.78766340 16.64076880 7.83810750
Ar 17.54147290 14.34548190 11.07520050
Ar 13.46519330 22.30001660 4.39379770
Ar 12.19980900 19.36400060 6.24847400
Kr 9.51499830 16.25384940 11.18844500
Ar 10.70904520 17.87653440 13.99157950
Ar 13.55585020 19.36783160 9.61706840
Ar 14.24872420 19.36905340 17.15152440
Ar 6.92645400 16.51815210 17.36483490
Ar 11.79635470 16.91098030 17.84480560
Ar 17.29589970 17.27666780 17.97902550
Ar 9.85293700 20.05607710 16.62995530
Ar 16.18310420 0.32269390 22.15369070
Ar 21.56304280 0.29006150 3.89109360
Ar 19.37903490 1.07665220 21.83248980
Ar 16.64007310 22.02970440 2.75418620
Ar 15.94211440 1.28486660 8.38520460
Ar 22.07356930 3.18473330 6.93890080
Ar 18.88548660 3.10004030 4.94363460
Ar 19.02887830 4.97536060 7.92980660
Ar 15.76343220 20.47813000 7.29337390
Ar 21.52036910 22.22369940 12.96370490
Ar 21.65543920 2.27205380 10.27252200
Ar 19.00013680 0.74459420 15.35627600
Ar 19.50897360 19.47820670 17.05448560
Ar 19.79460910 20.62577140 21.06439750
Ar 20.06022340 2.58078580 18.39532490
Ar 16.76777330 0.42614000 18.37013600
Ar 15.53801700 9.70671830 1.27665930
Ar 18.46781000 2.85752880 1.85845650
Ar 18.35040030 8.01016350 21.50709450
Ar 18.39432070 8.36354060 3.01425680
Kr 15.65257710 6.07303620 8.24907310
Ar 21.32448860 4.55824840 15.97270790
Ar 21.14009100 6.28320240 5.12673700
Ar 18.17221390 7.39908500 10.03182900
Ar 18.54267080 4.99487590 13.63498360
Ar 2.23990860 5.87346740 16.01953800
Ar 20.94232850 8.09328750 13.12634710
Ar 15.46540820 9.76817650 15.36117890
Ar 16.75116220 3.79292280 17.43776310
Ar 17.78523380 5.35075660 19.90285790
Ar 18.32675350 8.53530160 14.57087310
Ar 17.44383970 8.63947840 17.83614180
Ar 19.06525930 12.03010260 19.06437060
Ar 0.92851460 13.16524950 3.97089010
Ar 19.41935370 11.15441730 0.01767220
Ar 16.38146040 13.94505650 5.67493070
Ar 13.07790320 11.69660770 4.07659040
Ar 14.85358860 9.54767420 9.19682480
Ar 21.66873390 9.58549630 6.74560890
Ar 13.03509350 16.03030940 11.23652540
Kr 18.15680770 10.88032250 9.57751850
Ar 19.28376270 12.05514630 13.60327100
Ar 20.98148270 12.85023840 10.33305720
Ar 14.48659050 20.09206000 13.28489400
Ar 20.18656680 10.05941370 16.62179350
Ar 22.56290000 14.47838490 19.88886440
Ar 1.01583250 9.49010170 17.49787800
Ar 17.50600990 14.67941050 20.55223450
Ar 16.96179390 17.40780490 0.45964700
Ar 19.38534840 14.19791570 1.95714960
Ar 21.09872880 17.52857290 1.25264770
Ar 19.52967800 20.55542860 2.33736910
Ar 19.19042080 13.87868020 7.45679530
Ar 17.51703320 17.35137420 11.35196650
Ar 20.53523460 18.90828390 6.55133680
Ar 18.79329700 22.72138810 5.73404710
Ar 18.92361400 15.12530970 16.13173750
Ar 18.54016800 19.98310860 13.93034950
Ar 18.68002030 0.08167540 10.16856140
Ar 20.64058570 16.84610170 13.81391390
Ar 15.63761190 13.65893620 16.53023940
Ar 22.40766350 16.95195920 17.67748170
Kr 3.38607890 18.99479610 16.16398360
Ar 15.74967360 19.87797970 20.92246420
Ar 3.59068670 0.22410490 44.24767280
Ar 3.15904480 3.29829170 24.48507160
Ar 1.23787410 5.67684090 23.23681100
Ar 22.65009780 1.86108260 45.64908730
Ar 2.12037410 22.42774720 26.70705610
Ar 5.56770420 22.13696150 35.53601450
Ar 3.91823190 3.12193610 27.86404790
Ar 2.52758120 2.79542450 30.76767510
Ar 19.47023640 19.52917070 32.88039510
Ar 1.19862530 1.47735010 35.27730750
Ar 2.97187010 22.87349930 33.12503780
Ar 2.48149780 4.61861920 34.30442740
Ar 22.82649070 21.13645210 38.75411550
Ar 0.50017150 0.44676500 42.14766410
Ar 0.99669390 2.18841580 39.22154560
Ar 20.55034780 4.49334840 44.41558960
Ar 20.71109160 6.16321710 24.35586120
Ar 2.98847300 6.41202340 25.95264380
Ar 2.24771580 9.47533260 24.16968790
Ar 22.66063900 9.70910670 26.54029530
Ar 0.47186470 2.99169510 26.54205580
Ar 1.55346540 6.07304300 30.14391120
Ar 7.63995520 9.83428840 29.29232990
Ar 21.72390340 5.68439930 32.44395770
Ar 4.10788240 7.35764130 32.34076560
Ar 4.92471300 5.58218910 36.79528480
Ar 5.95436290 10.07988970 35.23450710
Ar 1.36900360 7.37087950 35.47602910
Ar 0.93005110 4.60055190 42.08012070
Ar 2.47227010 9.40059900 43.33307050
Ar 3.63361660 9.21903370 38.22232650
Ar 21.14804670 7.42545120 41.92080230
Ar 22.34897210 11.09251460 43.35089430
Ar 2.58073690 8.97260790 28.75082040
Ar 22.72198080 12.67734970 23.54459450
Ar 21.37200760 15.82398080 27.43397850
Ar 17.69585720 8.39023430 29.79763760
Kr 4.72856100 10.94344370 31.02026310
Ar 3.48945540 15.31582390 28.06359380
Ar 1.30191730 12.55068130 30.23555460
Ar 0.22630760 9.53438460 32.75932990
Ar 2.14335260 12.54072710 33.37687460
Ar 2.79853810 16.21800430 34.45139460
Ar 22.54677760 13.87306940 35.67559910
Kr 0.03566730 10.87328500 37.40912770
Ar 2.74217960 12.46997760 44.54584990
Ar 3.74531480 15.85005120 41.90325000
Ar 20.11399990 16.96064010 43.93046560
Ar 1.45038550 16.14854850 24.92592740
Ar 3.66284650 18.29080760 26.07340480
Ar 5.82999310 22.48884530 26.01033030
Ar 0.21900900 19.69827930 26.99678340
Kr 0.57241780 17.14092240 30.07133620
Ar 20.99905100 16.25942600 32.02553900
Ar 4.50729070 20.59435780 28.25882310
Ar 21.49417380 22.64251950 30.66014440
Ar 22.44330420 18.44262160 34.01280990
Ar 1.81078720 15.69982940 37.92612060
Ar 2.71405280 19.63228010 31.62327640
Ar 2.79709060 17.21633660 45.23229480
Ar 22.27967510 13.64866050 38.81105960
Ar 3.30457720 20.75792480 23.73233140
Ar 3.84939510 22.61416030 39.46949930
Kr 0.45924910 19.66541090 45.23197680
Ar 5.12193390 18.80837990 43.52481310
Ar 8.76877860 2.37290240 23.39618500
Ar 8.04848620 2.85414220 41.84673030
Ar 6.43842520 5.19317910 23.41247190
Ar 4.98774180 0.65058210 30.11097770
Ar 12.95144280 0.06773580 30.74821990
Ar 7.20735510 3.82791700 27.18296870
Ar 5.30695870 4.02907420 31.93515990
Ar 7.34139730 2.68948470 35.33585380
Ar 7.89104210 19.24022650 35.71268930
Ar 9.97902420 21.84701180 30.41537810
Ar 4.28478300 2.38567900 37.19096760
Ar 3.62303770 3.42447960 43.91766560
Kr 8.74723670 22.36592970 42.63536490
Ar 7.06892530 1.29146070 39.00647950
Ar 5.09629010 6.35968110 43.64154930
Kr 5.35876300 9.05233000 45.15151180
Ar 9.93800490 5.41546950 45.44340030
Ar 8.85247600 8.99075580 45.20640450
Ar 5.80396920 9.08956830 25.99074690
Ar 5.79339720 6.57674230 29.20793060
Ar 7.80386040 22.87494260 33.28415580
Ar 8.53354620 6.87169860 27.06931060
Ar 7.40727260 6.43140070 33.76057610
Ar 11.44424340 5.19439580 32.87917690
Ar 10.27801200 21.79451270 36.80150930
Ar 8.59576690 4.01940020 38.19492370
Ar 8.08279320 7.78244530 38.28791000
Ar 5.62246670 4.72015920 40.56317240
Ar 10.96830940 4.44961600 26.14778880
Ar 9.92950650 5.94077560 40.61462880
Ar 7.20233350 7.96025800 41.69677900
Ar 7.69000940 13.04797950 24.58731600
Ar 11.76820590 14.25575070 24.69489750
Ar 9.43704200 14.53710220 44.60597340
Ar 5.26399890 12.20995610 27.65372600
Ar 9.28232480 13.10175530 28.50842360
Ar 11.67138520 11.08839230 30.42426110
Ar 8.39332870 16.23537540 24.41416920
Ar 3.92650990 14.74633470 31.53405210
Kr 8.88872540 9.58564670 32.97525220
Ar 9.77939930 9.76796690 36.18424620
Ar 8.07873860 12.72752180 32.25805460
Ar 3.00167950 12.27447470 36.73759370
Ar 6.04673960 10.97642850 38.92562050
Ar 9.13502710 10.64916780 40.94002550
Ar 8.15218590 13.19525660 36.75844770
Ar 2.74400720 12.38400330 41.24626140
Ar 4.59447330 14.45166470 24.37591260
Ar 11.65293630 17.80188520 45.32032930
Ar 9.78339460 21.29093090 45.53574160
Ar 6.53369460 19.23607070 23.90129500
Ar 6.82510520 15.81240470 27.83885620
Ar 8.08047360 15.91108230 31.08928040
Ar 8.03386760 18.98666910 28.12827430
Ar 5.31073770 18.05748400 30.48675050
Ar 6.05992600 15.30167120 34.64753940
Ar 5.56852230 17.22530680 37.27954070
Ar 7.00686530 19.66151500 32.62352580
Ar 2.32309680 19.71642050 35.47223430
Ar 6.97089740 11.96017300 44.18790580
Ar 6.01986250 15.83984650 44.71551200
Ar 6.71109770 20.13859040 39.98729010
Ar 1.82214680 19.38595650 41.99963910
Kr 12.65066020 0.08885140 23.58864290
Ar 15.31969670 2.38480140 25.86527870
Ar 15.80928410 3.42924640 45.52847030
Ar 9.67561930 1.44818510 27.10130660
Ar 10.26592570 20.78879440 25.82083450
Kr 13.61689620 2.44109150 33.16362020
Ar 10.45249980 7.36806840 30.10774410
Ar 9.26344940 3.03977470 30.09407850
Ar 10.66553300 2.14733440 35.85131060
Ar 13.80324590 22.45059840 38.53432610
Ar 16.20413200 0.03837370 35.43840430
Ar 12.59385610 22.34806220 34.56145060
Ar 10.81103500 0.89300950 40.16137180
Ar 13.76469500 22.05159790 41.92228890
Ar 14.36869850 3.43399780 37.30631380
Ar 10.94226830 1.61883850 43.84495060
Ar 13.15907290 5.41123460 44.47957820
Ar 15.39744730 8.59897860 27.54859260
Ar 15.01228940 8.55645970 43.30589920
Ar 12.15379650 8.39809300 24.43106530
Ar 12.76520700 4.93197510 29.00152290
Ar 17.19992560 3.81108470 33.71371200
Ar 16.83470470 5.62853640 26.66715870
Ar 13.45505390 13.45069040 31.84761290
Ar 11.91072350 5.40567390 36.30076170
Ar 15.74872730 6.59610470 35.45187800
Kr 12.92236070 9.23443550 35.09419840
Ar 11.80051620 8.02143760 38.74050050
Ar 13.59148610 3.16984520 40.88042510
Ar 14.31423970 6.43776190 40.76161850
Ar 13.33246210 10.64270880 41.05361020
Ar 11.84730300 8.74706940 43.61519240
Ar 11.24898080 11.72532990 45.58133060
Ar 19.37157410 11.58984580 27.38620970
Ar 15.72064660 13.75033170 24.13424380
Ar 11.49355340 17.33999740 26.23774160
Ar 9.70399750 10.91864420 26.18620810
Ar 12.26351190 15.01963710 28.49885740
Ar 17.90246950 16.87702320 29.84324390
Ar 11.16784390 17.08597220 31.47681080
Ar 11.24791740 12.50645110 34.37276260
Ar 15.26979150 13.07731560 36.08136130
Ar 10.76873250 14.11223140 39.38190690
Ar 13.59070470 16.35761620 37.41200430
Ar 12.51267210 11.46183950 38.08052990
Ar 15.05146880 12.32688050 43.76145060
Ar 12.24658970 13.39690770 42.61765690
Ar 9.19665310 18.57255360 42.52897780
Ar 14.07822070 15.63180300 44.86989560
Ar 18.52178710 17.59775250 26.76736900
Ar 13.65001780 19.71496250 24.17430150
Ar 15.21205740 18.38939520 27.36317900
Kr 14.78766340 16.64076880 30.71425950
Ar 17.54147290 14.34548190 33.95135250
Ar 13.46519330 22.30001660 27.26994970
Ar 12.19980900 19.36400060 29.12462600
Kr 9.51499830 16.25384940 34.06459700
Ar 10.70904520 17.87653440 36.86773150
Ar 13.55585020 19.36783160 32.49322040
Ar 14.24872420 19.36905340 40.02767640
Ar 6.92645400 16.51815210 40.24098690
Ar 11.79635470 16.91098030 40.72095760
Ar 17.29589970 17.27666780 40.85517750
Ar 9.85293700 20.05607710 39.50610730
Ar 16.18310420 0.32269390 45.02984270
Ar 21.56304280 0.29006150 26.76724560
Ar 19.37903490 1.07665220 44.70864180
Ar 16.64007310 22.02970440 25.63033820
Ar 15.94211440 1.28486660 31.26135660
Ar 22.07356930 3.18473330 29.81505280
Ar 18.88548660 3.10004030 27.81978660
Ar 19.02887830 4.97536060 30.80595860
Ar 15.76343220 20.47813000 30.16952590
Ar 21.52036910 22.22369940 35.83985690
Ar 21.65543920 2.27205380 33.14867400
Ar 19.00013680 0.74459420 38.23242800
Ar 19.50897360 19.47820670 39.93063760
Ar 19.79460910 20.62577140 43.94054950
Ar 20.06022340 2.58078580 41.27147690
Ar 16.76777330 0.42614000 41.24628800
Ar 15.53801700 9.70671830 24.15281130
Ar 18.46781000 2.85752880 24.73460850
Ar 18.35040030 8.01016350 44.38324650
Ar 18.39432070 8.36354060 25.89040880
Kr 15.65257710 6.07303620 31.12522510
Ar 21.32448860 4.55824840 38.84885990
Ar 21.14009100 6.28320240 28.00288900
Ar 18.17221390 7.39908500 32.90798100
Ar 18.54267080 4.99487590 36.51113560
Ar 2.23990860 5.87346740 38.89569000
Ar 20.94232850 8.09328750 36.00249910
Ar 15.46540820 9.76817650 38.23733090
Ar 16.75116220 3.79292280 40.31391510
Ar 17.78523380 5.35075660 42.77900990
Ar 18.32675350 8.53530160 37.44702510
Ar 17.44383970 8.63947840 40.71229380
Ar 19.06525930 12.03010260 41.94052260
Ar 0.92851460 13.16524950 26.84704210
Ar 19.41935370 11.15441730 22.89382420
Ar 16.38146040 13.94505650 28.55108270
Ar 13.07790320 11.69660770 26.95274240
Ar 14.85358860 9.54767420 32.07297680
Ar 21.66873390 9.58549630 29.62176090
Ar 13.03509350 16.03030940 34.11267740
Kr 18.15680770 10.88032250 32.45367050
Ar 19.28376270 12.05514630 36.47942300
Ar 20.98148270 12.85023840 33.20920920
Ar 14.48659050 20.09206000 36.16104600
Ar 20.18656680 10.05941370 39.49794550
Ar 22.56290000 14.47838490 42.76501640
Ar 1.01583250 9.49010170 40.37403000
Ar 17.50600990 14.67941050 43.42838650
Ar 16.96179390 17.40780490 23.33579900
Ar 19.38534840 14.19791570 24.83330160
Ar 21.09872880 17.52857290 24.12879970
Ar 19.52967800 20.55542860 25.21352110
Ar 19.19042080 13.87868020 30.33294730
Ar 17.51703320 17.35137420 34.22811850
Ar 20.53523460 18.90828390 29.42748880
Ar 18.79329700 22.72138810 28.61019910
Ar 18.92361400 15.12530970 39.00788950
Ar 18.54016800 19.98310860 36.80650150
Ar 18.68002030 0.08167540 33.04471340
Ar 20.64058570 16.84610170 36.69006590
Ar 15.63761190 13.65893620 39.40639140
Ar 22.40766350 16.95195920 40.55363370
Kr 3.38607890 18.99479610 39.04013560
Ar 15.74967360 19.87797970 43.79861620
Ar 3.59068670 23.10025690 21.37152080
Ar 3.15904480 26.17444370 1.60891960
Ar 1.23787410 28.55299290 0.36065900
Ar 22.65009780 24.73723460 22.77293530
Ar 2.12037410 45.30389920 3.83090410
Ar 5.56770420 45.01311350 12.65986250
Ar 3.91823190 25.99808810 4.98789590
Ar 2.52758120 25.67157650 7.89152310
Ar 19.47023640 42.40532270 10.00424310
Ar 1.19862530 24.35350210 12.40115550
Ar 2.97187010 45.74965130 10.24888580
Ar 2.48149780 27.49477120 11.42827540
Ar 22.82649070 44.01260410 15.87796350
Ar 0.50017150 23.32291700 19.27151210
Ar 0.99669390 25.06456780 16.34539360
Ar 20.55034780 27.36950040 21.53943760
Ar 20.71109160 29.03936910 1.47970920
Ar 2.98847300 29.28817540 3.07649180
Ar 2.24771580 32.35148460 1.29353590
Ar 22.66063900 32.58525870 3.66414330
Ar 0.47186470 25.86784710 3.66590380
Ar 1.55346540 28.94919500 7.26775920
Ar 7.63995520 32.71044040 6.41617790
Ar 21.72390340 28.56055130 9.56780570
Ar 4.10788240 30.23379330 9.46461360
Ar 4.92471300 28.45834110 13.91913280
Ar 5.95436290 32.95604170 12.35835510
Ar 1.36900360 30.24703150 12.59987710
Ar 0.93005110 27.47670390 19.20396870
Ar 2.47227010 32.27675100 20.45691850
Ar 3.63361660 32.09518570 15.34617450
Ar 21.14804670 30.30160320 19.04465030
Ar 22.34897210 33.96866660 20.47474230
Ar 2.58073690 31.84875990 5.87466840
Ar 22.72198080 35.55350170 0.66844250
Ar 21.37200760 38.70013280 4.55782650
Ar 17.69585720 31.26638630 6.92148560
Kr 4.72856100 33.81959570 8.14411110
Ar 3.48945540 38.19197590 5.18744180
Ar 1.30191730 35.42683330 7.35940260
Ar 0.22630760 32.41053660 9.88317790
Ar 2.14335260 35.41687910 10.50072260
Ar 2.79853810 39.09415630 11.57524260
Ar 22.54677760 36.74922140 12.79944710
Kr 0.03566730 33.74943700 14.53297570
Ar 2.74217960 35.34612960 21.66969790
Ar 3.74531480 38.72620320 19.02709800
Ar 20.11399990 39.83679210 21.05431360
Ar 1.45038550 39.02470050 2.04977540
Ar 3.66284650 41.16695960 3.19725280
Ar 5.82999310 45.36499730 3.13417830
Ar 0.21900900 42.57443130 4.12063140
Kr 0.57241780 40.01707440 7.19518420
Ar 20.99905100 39.13557800 9.14938700
Ar 4.50729070 43.47050980 5.38267110
Ar 21.49417380 45.51867150 7.78399240
Ar 22.44330420 41.31877360 11.13665790
Ar 1.81078720 38.57598140 15.04996860
Ar 2.71405280 42.50843210 8.74712440
Ar 2.79709060 40.09248860 22.35614280
Ar 22.27967510 36.52481250 15.93490760
Ar 3.30457720 43.63407680 0.85617940
Ar 3.84939510 45.49031230 16.59334730
Kr 0.45924910 42.54156290 22.35582480
Ar 5.12193390 41.68453190 20.64866110
Ar 8.76877860 25.24905440 0.52003300
Ar 8.04848620 25.73029420 18.97057830
Ar 6.43842520 28.06933110 0.53631990
Ar 4.98774180 23.52673410 7.23482570
Ar 12.95144280 22.94388780 7.87206790
Ar 7.20735510 26.70406900 4.30681670
Ar 5.30695870 26.90522620 9.05900790
Ar 7.34139730 25.56563670 12.45970180
Ar 7.89104210 42.11637850 12.83653730
Ar 9.97902420 44.72316380 7.53922610
Ar 4.28478300 25.26183100 14.31481560
Ar 3.62303770 26.30063160 21.04151360
Kr 8.74723670 45.24208170 19.75921290
Ar 7.06892530 24.16761270 16.13032750
Ar 5.09629010 29.23583310 20.76539730
Kr 5.35876300 31.92848200 22.27535980
Ar 9.93800490 28.29162150 22.56724830
Ar 8.85247600 31.86690780 22.33025250
Ar 5.80396920 31.96572030 3.11459490
Ar 5.79339720 29.45289430 6.33177860
Ar 7.80386040 45.75109460 10.40800380
Ar 8.53354620 29.74785060 4.19315860
Ar 7.40727260 29.30755270 10.88442410
Ar 11.44424340 28.07054780 10.00302490
Ar 10.27801200 44.67066470 13.92535730
Ar 8.59576690 26.89555220 15.31877170
Ar 8.08279320 30.65859730 15.41175800
Ar 5.62246670 27.59631120 17.68702040
Ar 10.96830940 27.32576800 3.27163680
Ar 9.92950650 28.81692760 17.73847680
Ar 7.20233350 30.83641000 18.82062700
Ar 7.69000940 35.92413150 1.71116400
Ar 11.76820590 37.13190270 1.81874550
Ar 9.43704200 37.41325420 21.72982140
Ar 5.26399890 35.08610810 4.77757400
Ar 9.28232480 35.97790730 5.63227160
Ar 11.67138520 33.96454430 7.54810910
Ar 8.39332870 39.11152740 1.53801720
Ar 3.92650990 37.62248670 8.65790010
Kr 8.88872540 32.46179870 10.09910020
Ar 9.77939930 32.64411890 13.30809420
Ar 8.07873860 35.60367380 9.38190260
Ar 3.00167950 35.15062670 13.86144170
Ar 6.04673960 33.85258050 16.04946850
Ar 9.13502710 33.52531980 18.06387350
Ar 8.15218590 36.07140860 13.88229570
Ar 2.74400720 35.26015530 18.37010940
Ar 4.59447330 37.32781670 1.49976060
Ar 11.65293630 40.67803720 22.44417730
Ar 9.78339460 44.16708290 22.65958960
Ar 6.53369460 42.11222270 1.02514300
Ar 6.82510520 38.68855670 4.96270420
Ar 8.08047360 38.78723430 8.21312840
Ar 8.03386760 41.86282110 5.25212230
Ar 5.31073770 40.93363600 7.61059850
Ar 6.05992600 38.17782320 11.77138740
Ar 5.56852230 40.10145880 14.40338870
Ar 7.00686530 42.53766700 9.74737380
Ar 2.32309680 42.59257250 12.59608230
Ar 6.97089740 34.83632500 21.31175380
Ar 6.01986250 38.71599850 21.83936000
Ar 6.71109770 43.01474240 17.11113810
Ar 1.82214680 42.26210850 19.12348710
Kr 12.65066020 22.96500340 0.71249090
Ar 15.31969670 25.26095340 2.98912670
Ar 15.80928410 26.30539840 22.65231830
Ar 9.67561930 24.32433710 4.22515460
Ar 10.26592570 43.66494640 2.94468250
Kr 13.61689620 25.31724350 10.28746820
Ar 10.45249980 30.24422040 7.23159210
Ar 9.26344940 25.91592670 7.21792650
Ar 10.66553300 25.02348640 12.97515860
Ar 13.80324590 45.32675040 15.65817410
Ar 16.20413200 22.91452570 12.56225230
Ar 12.59385610 45.22421420 11.68529860
Ar 10.81103500 23.76916150 17.28521980
Ar 13.76469500 44.92774990 19.04613690
Ar 14.36869850 26.31014980 14.43016180
Ar 10.94226830 24.49499050 20.96879860
Ar 13.15907290 28.28738660 21.60342620
Ar 15.39744730 31.47513060 4.67244060
Ar 15.01228940 31.43261170 20.42974720
Ar 12.15379650 31.27424500 1.55491330
Ar 12.76520700 27.80812710 6.12537090
Ar 17.19992560 26.68723670 10.83756000
Ar 16.83470470 28.50468840 3.79100670
Ar 13.45505390 36.32684240 8.97146090
Ar 11.91072350 28.28182590 13.42460970
Ar 15.74872730 29.47225670 12.57572600
Kr 12.92236070 32.11058750 12.21804640
Ar 11.80051620 30.89758960 15.86434850
Ar 13.59148610 26.04599720 18.00427310
Ar 14.31423970 29.31391390 17.88546650
Ar 13.33246210 33.51886080 18.17745820
Ar 11.84730300 31.62322140 20.73904040
Ar 11.24898080 34.60148190 22.70517860
Ar 19.37157410 34.46599780 4.51005770
Ar 15.72064660 36.62648370 1.25809180
Ar 11.49355340 40.21614940 3.36158960
Ar 9.70399750 33.79479620 3.31005610
Ar 12.26351190 37.89578910 5.62270540
Ar 17.90246950 39.75317520 6.96709190
Ar 11.16784390 39.96212420 8.60065880
Ar 11.24791740 35.38260310 11.49661060
Ar 15.26979150 35.95346760 13.20520930
Ar 10.76873250 36.98838340 16.50575490
Ar 13.59070470 39.23376820 14.53585230
Ar 12.51267210 34.33799150 15.20437790
Ar 15.05146880 35.20303250 20.88529860
Ar 12.24658970 36.27305970 19.74150490
Ar 9.19665310 41.44870560 19.65282580
Ar 14.07822070 38.50795500 21.99374360
Ar 18.52178710 40.47390450 3.89121700
Ar 13.65001780 42.59111450 1.29814950
Ar 15.21205740 41.26554720 4.48702700
Kr 14.78766340 39.51692080 7.83810750
Ar 17.54147290 37.22163390 11.07520050
Ar 13.46519330 45.17616860 4.39379770
Ar 12.19980900 42.24015260 6.24847400
Kr 9.51499830 39.13000140 11.18844500
Ar 10.70904520 40.75268640 13.99157950
Ar 13.55585020 42.24398360 9.61706840
Ar 14.24872420 42.24520540 17.15152440
Ar 6.92645400 39.39430410 17.36483490
Ar 11.79635470 39.78713230 17.84480560
Ar 17.29589970 40.15281980 17.97902550
Ar 9.85293700 42.93222910 16.62995530
Ar 16.18310420 23.19884590 22.15369070
Ar 21.56304280 23.16621350 3.89109360
Ar 19.37903490 23.95280420 21.83248980
Ar 16.64007310 44.90585640 2.75418620
Ar 15.94211440 24.16101860 8.38520460
Ar 22.07356930 26.06088530 6.93890080
Ar 18.88548660 25.97619230 4.94363460
Ar 19.02887830 27.85151260 7.92980660
Ar 15.76343220 43.35428200 7.29337390
Ar 21.52036910 45.09985140 12.96370490
Ar 21.65543920 25.14820580 10.27252200
Ar 19.00013680 23.62074620 15.35627600
Ar 19.50897360 42.35435870 17.05448560
Ar 19.79460910 43.50192340 21.06439750
Ar 20.06022340 25.45693780 18.39532490
Ar 16.76777330 23.30229200 18.37013600
Ar 15.53801700 32.58287030 1.27665930
Ar 18.46781000 25.73368080 1.85845650
Ar 18.35040030 30.88631550 21.50709450
Ar 18.39432070 31.23969260 3.01425680
Kr 15.65257710 28.94918820 8.24907310
Ar 21.32448860 27.43440040 15.97270790
Ar 21.14009100 29.15935440 5.12673700
Ar 18.17221390 30.27523700 10.03182900
Ar 18.54267080 27.87102790 13.63498360
Ar 2.23990860 28.74961940 16.01953800
Ar 20.94232850 30.96943950 13.12634710
Ar 15.46540820 32.64432850 15.36117890
Ar 16.75116220 26.66907480 17.43776310
Ar 17.78523380 28.22690860 19.90285790
Ar 18.32675350 31.41145360 14.57087310
Ar 17.44383970 31.51563040 17.83614180
Ar 19.06525930 34.90625460 19.06437060
Ar 0.92851460 36.04140150 3.97089010
Ar 19.41935370 34.03056930 0.01767220
Ar 16.38146040 36.82120850 5.67493070
Ar 13.07790320 34.57275970 4.07659040
Ar 14.85358860 32.42382620 9.19682480
Ar 21.66873390 32.46164830 6.74560890
Ar 13.03509350 38.90646140 11.23652540
Kr 18.15680770 33.75647450 9.57751850
Ar 19.28376270 34.93129830 13.60327100
Ar 20.98148270 35.72639040 10.33305720
Ar 14.48659050 42.96821200 13.28489400
Ar 20.18656680 32.93556570 16.62179350
Ar 22.56290000 37.35453690 19.88886440
Ar 1.01583250 32.36625370 17.49787800
Ar 17.50600990 37.55556250 20.55223450
Ar 16.96179390 40.28395690 0.45964700
Ar 19.38534840 37.07406770 1.95714960
Ar 21.09872880 40.40472490 1.25264770
Ar 19.52967800 43.43158060 2.33736910
Ar 19.19042080 36.75483220 7.45679530
Ar 17.51703320 40.22752620 11.35196650
Ar 20.53523460 41.78443590 6.55133680
Ar 18.79329700 45.59754010 5.73404710
Ar 18.92361400 38.00146170 16.13173750
Ar 18.54016800 42.85926060 13.93034950
Ar 18.68002030 22.95782740 10.16856140
Ar 20.64058570 39.72225370 13.81391390
Ar 15.63761190 36.53508820 16.53023940
Ar 22.40766350 39.82811120 17.67748170
Kr 3.38607890 41.87094810 16.16398360
Ar 15.74967360 42.75413170 20.92246420
Ar 3.59068670 23.10025690 44.24767280
Ar 3.15904480 26.17444370 24.48507160
Ar 1.23787410 28.55299290 23.23681100
Ar 22.65009780 24.73723460 45.64908730
Ar 2.12037410 45.30389920 26.70705610
Ar 5.56770420 45.01311350 35.53601450
Ar 3.91823190 25.99808810 27.86404790
Ar 2.52758120 25.67157650 30.76767510
Ar 19.47023640 42.40532270 32.88039510
Ar 1.19862530 24.35350210 35.27730750
Ar 2.97187010 45.74965130 33.12503780
Ar 2.48149780 27.49477120 34.30442740
Ar 22.82649070 44.01260410 38.75411550
Ar 0.50017150 23.32291700 42.14766410
Ar 0.99669390 25.06456780 39.22154560
Ar 20.55034780 27.36950040 44.41558960
Ar 20.71109160 29.03936910 24.35586120
Ar 2.98847300 29.28817540 25.95264380
Ar 2.24771580 32.35148460 24.16968790
Ar 22.66063900 32.58525870 26.54029530
Ar 0.47186470 25.86784710 26.54205580
Ar 1.55346540 28.94919500 30.14391120
Ar 7.63995520 32.71044040 29.29232990
Ar 21.72390340 28.56055130 32.44395770
Ar 4.10788240 30.23379330 32.34076560
Ar 4.92471300 28.45834110 36.79528480
Ar 5.95436290 32.95604170 35.23450710
Ar 1.36900360 30.24703150 35.47602910
Ar 0.93005110 27.47670390 42.08012070
Ar 2.47227010 32.27675100 43.33307050
Ar 3.63361660 32.09518570 38.22232650
Ar 21.14804670 30.30160320 41.92080230
Ar 22.34897210 33.96866660 43.35089430
Ar 2.58073690 31.84875990 28.75082040
Ar 22.72198080 35.55350170 23.54459450
Ar 21.37200760 38.70013280 27.43397850
Ar 17.69585720 31.26638630 29.79763760
Kr 4.72856100 33.81959570 31.02026310
Ar 3.48945540 38.19197590 28.06359380
Ar 1.30191730 35.42683330 30.23555460
Ar 0.22630760 32.41053660 32.75932990
Ar 2.14335260 35.41687910 33.37687460
Ar 2.79853810 39.09415630 34.45139460
Ar 22.54677760 36.74922140 35.67559910
Kr 0.03566730 33.74943700 37.40912770
Ar 2.74217960 35.34612960 44.54584990
Ar 3.74531480 38.72620320 41.90325000
Ar 20.11399990 39.83679210 43.93046560
Ar 1.45038550 39.02470050 24.92592740
Ar 3.66284650 41.16695960 26.07340480
Ar 5.82999310 45.36499730 26.01033030
Ar 0.21900900 42.57443130 26.99678340
Kr 0.57241780 40.01707440 30.07133620
Ar 20.99905100 39.13557800 32.02553900
Ar 4.50729070 43.47050980 28.25882310
Ar 21.49417380 45.51867150 30.66014440
Ar 22.44330420 41.31877360 34.01280990
Ar 1.81078720 38.57598140 37.92612060
Ar 2.71405280 42.50843210 31.62327640
Ar 2.79709060 40.09248860 45.23229480
Ar 22.27967510 36.52481250 38.81105960
Ar 3.30457720 43.63407680 23.73233140
Ar 3.84939510 45.49031230 39.46949930
Kr 0.45924910 42.54156290 45.23197680
Ar 5.12193390 41.68453190 43.52481310
Ar 8.76877860 25.24905440 23.39618500
Ar 8.04848620 25.73029420 41.84673030
Ar 6.43842520 28.06933110 23.41247190
Ar 4.98774180 23.52673410 30.11097770
Ar 12.95144280 22.94388780 30.74821990
Ar 7.20735510 26.70406900 27.18296870
Ar 5.30695870 26.90522620 31.93515990
Ar 7.34139730 25.56563670 35.33585380
Ar 7.89104210 42.11637850 35.71268930
Ar 9.97902420 44.72316380 30.41537810
Ar 4.28478300 25.26183100 37.19096760
Ar 3.62303770 26.30063160 43.91766560
Kr 8.74723670 45.24208170 42.63536490
Ar 7.06892530 24.16761270 39.00647950
Ar 5.09629010 29.23583310 43.64154930
Kr 5.35876300 31.92848200 45.15151180
Ar 9.93800490 28.29162150 45.44340030
Ar 8.85247600 31.86690780 45.20640450
Ar 5.80396920 31.96572030 25.99074690
Ar 5.79339720 29.45289430 29.20793060
Ar 7.80386040 45.75109460 33.28415580
Ar 8.53354620 29.74785060 27.06931060
Ar 7.40727260 29.30755270 33.76057610
Ar 11.44424340 28.07054780 32.87917690
Ar 10.27801200 44.67066470 36.80150930
Ar 8.59576690 26.89555220 38.19492370
Ar 8.08279320 30.65859730 38.28791000
Ar 5.62246670 27.59631120 40.56317240
Ar 10.96830940 27.32576800 26.14778880
Ar 9.92950650 28.81692760 40.61462880
Ar 7.20233350 30.83641000 41.69677900
Ar 7.69000940 35.92413150 24.58731600
Ar 11.76820590 37.13190270 24.69489750
Ar 9.43704200 37.41325420 44.60597340
Ar 5.26399890 35.08610810 27.65372600
Ar 9.28232480 35.97790730 28.50842360
Ar 11.67138520 33.96454430 30.42426110
Ar 8.39332870 39.11152740 24.41416920
Ar 3.92650990 37.62248670 31.53405210
Kr 8.88872540 32.46179870 32.97525220
Ar 9.77939930 32.64411890 36.18424620
Ar 8.07873860 35.60367380 32.25805460
Ar 3.00167950 35.15062670 36.73759370
Ar 6.04673960 33.85258050 38.92562050
Ar 9.13502710 33.52531980 40.94002550
Ar 8.15218590 36.07140860 36.75844770
Ar 2.74400720 35.26015530 41.24626140
Ar 4.59447330 37.32781670 24.37591260
Ar 11.65293630 40.67803720 45.32032930
Ar 9.78339460 44.16708290 45.53574160
Ar 6.53369460 42.11222270 23.90129500
Ar 6.82510520 38.68855670 27.83885620
Ar 8.08047360 38.78723430 31.08928040
Ar 8.03386760 41.86282110 28.12827430
Ar 5.31073770 40.93363600 30.48675050
Ar 6.05992600 38.17782320 34.64753940
Ar 5.56852230 40.10145880 37.27954070
Ar 7.00686530 42.53766700 32.62352580
Ar 2.32309680 42.59257250 35.47223430
Ar 6.97089740 34.83632500 44.18790580
Ar 6.01986250 38.71599850 44.71551200
Ar 6.71109770 43.01474240 39.98729010
Ar 1.82214680 42.26210850 41.99963910
Kr 12.65066020 22.96500340 23.58864290
Ar 15.31969670 25.26095340 25.86527870
Ar 15.80928410 26.30539840 45.52847030
Ar 9.67561930 24.32433710 27.10130660
Ar 10.26592570 43.66494640 25.82083450
Kr 13.61689620 25.31724350 33.16362020
Ar 10.45249980 30.24422040 30.10774410
Ar 9.26344940 25.91592670 30.09407850
Ar 10.66553300 25.02348640 35.85131060
Ar 13.80324590 45.32675040 38.53432610
Ar 16.20413200 22.91452570 35.43840430
Ar 12.59385610 45.22421420 34.56145060
Ar 10.81103500 23.76916150 40.16137180
Ar 13.76469500 44.92774990 41.92228890
Ar 14.36869850 26.31014980 37.30631380
Ar 10.94226830 24.49499050 43.84495060
Ar 13.15907290 28.28738660 44.47957820
Ar 15.39744730 31.47513060 27.54859260
Ar 15.01228940 31.43261170 43.30589920
Ar 12.15379650 31.27424500 24.43106530
Ar 12.76520700 27.80812710 29.00152290
Ar 17.19992560 26.68723670 33.71371200
Ar 16.83470470 28.50468840 26.66715870
Ar 13.45505390 36.32684240 31.84761290
Ar 11.91072350 28.28182590 36.30076170
Ar 15.74872730 29.47225670 35.45187800
Kr 12.92236070 32.11058750 35.09419840
Ar 11.80051620 30.89758960 38.74050050
Ar 13.59148610 26.04599720 40.88042510
Ar 14.31423970 29.31391390 40.76161850
Ar 13.33246210 33.51886080 41.05361020
Ar 11.84730300 31.62322140 43.61519240
Ar 11.24898080 34.60148190 45.58133060
Ar 19.37157410 34.46599780 27.38620970
Ar 15.72064660 36.62648370 24.13424380
Ar 11.49355340 40.21614940 26.23774160
Ar 9.70399750 33.79479620 26.18620810
Ar 12.26351190 37.89578910 28.49885740
Ar 17.90246950 39.75317520 29.84324390
Ar 11.16784390 39.96212420 31.47681080
Ar 11.24791740 35.38260310 34.37276260
Ar 15.26979150 35.95346760 36.08136130
Ar 10.76873250 36.98838340 39.38190690
Ar 13.59070470 39.23376820 37.41200430
Ar 12.51267210 34.33799150 38.08052990
Ar 15.05146880 35.20303250 43.76145060
Ar 12.24658970 36.27305970 42.61765690
Ar 9.19665310 41.44870560 42.52897780
Ar 14.07822070 38.50795500 44.86989560
Ar 18.52178710 40.47390450 26.76736900
Ar 13.65001780 42.59111450 24.17430150
Ar 15.21205740 41.26554720 27.36317900
Kr 14.78766340 39.51692080 30.71425950
Ar 17.54147290 37.22163390 33.95135250
Ar 13.46519330 45.17616860 27.26994970
Ar 12.19980900 42.24015260 29.12462600
Kr 9.51499830 39.13000140 34.06459700
Ar 10.70904520 40.75268640 36.86773150
Ar 13.55585020 42.24398360 32.49322040
Ar 14.24872420 42.24520540 40.02767640
Ar 6.92645400 39.39430410 40.24098690
Ar 11.79635470 39.78713230 40.72095760
Ar 17.29589970 40.15281980 40.85517750
Ar 9.85293700 42.93222910 39.50610730
Ar 16.18310420 23.19884590 45.02984270
Ar 21.56304280 23.16621350 26.76724560
Ar 19.37903490 23.95280420 44.70864180
Ar 16.64007310 44.90585640 25.63033820
Ar 15.94211440 24.16101860 31.26135660
Ar 22.07356930 26.06088530 29.81505280
Ar 18.88548660 25.97619230 27.81978660
Ar 19.02887830 27.85151260 30.80595860
Ar 15.76343220 43.35428200 30.16952590
Ar 21.52036910 45.09985140 35.83985690
Ar 21.65543920 25.14820580 33.14867400
Ar 19.00013680 23.62074620 38.23242800
Ar 19.50897360 42.35435870 39.93063760
Ar 19.79460910 43.50192340 43.94054950
Ar 20.06022340 25.45693780 41.27147690
Ar 16.76777330 23.30229200 41.24628800
Ar 15.53801700 32.58287030 24.15281130
Ar 18.46781000 25.73368080 24.73460850
Ar 18.35040030 30.88631550 44.38324650
Ar 18.39432070 31.23969260 25.89040880
Kr 15.65257710 28.94918820 31.12522510
Ar 21.32448860 27.43440040 38.84885990
Ar 21.14009100 29.15935440 28.00288900
Ar 18.17221390 30.27523700 32.90798100
Ar 18.54267080 27.87102790 36.51113560
Ar 2.23990860 28.74961940 38.89569000
Ar 20.94232850 30.96943950 36.00249910
Ar 15.46540820 32.64432850 38.23733090
Ar 16.75116220 26.66907480 40.31391510
Ar 17.78523380 28.22690860 42.77900990
Ar 18.32675350 31.41145360 37.44702510
Ar 17.44383970 31.51563040 40.71229380
Ar 19.06525930 34.90625460 41.94052260
Ar 0.92851460 36.04140150 26.84704210
Ar 19.41935370 34.03056930 22.89382420
Ar 16.38146040 36.82120850 28.55108270
Ar 13.07790320 34.57275970 26.95274240
Ar 14.85358860 32.42382620 32.07297680
Ar 21.66873390 32.46164830 29.62176090
Ar 13.03509350 38.90646140 34.11267740
Kr 18.15680770 33.75647450 32.45367050
Ar 19.28376270 34.93129830 36.47942300
Ar 20.98148270 35.72639040 33.20920920
Ar 14.48659050 42.96821200 36.16104600
Ar 20.18656680 32.93556570 39.49794550
Ar 22.56290000 37.35453690 42.76501640
Ar 1.01583250 32.36625370 40.37403000
Ar 17.50600990 37.55556250 43.42838650
Ar 16.96179390 40.28395690 23.33579900
Ar 19.38534840 37.07406770 24.83330160
Ar 21.09872880 40.40472490 24.12879970
Ar 19.52967800 43.43158060 25.21352110
Ar 19.19042080 36.75483220 30.33294730
Ar 17.51703320 40.22752620 34.22811850
Ar 20.53523460 41.78443590 29.42748880
Ar 18.79329700 45.59754010 28.61019910
Ar 18.92361400 38.00146170 39.00788950
Ar 18.54016800 42.85926060 36.80650150
Ar 18.68002030 22.95782740 33.04471340
Ar 20.64058570 39.72225370 36.69006590
Ar 15.63761190 36.53508820 39.40639140
Ar 22.40766350 39.82811120 40.55363370
Kr 3.38607890 41.87094810 39.04013560
Ar 15.74967360 42.75413170 43.79861620
Ar 26.46683870 0.22410490 21.37152080
Ar 26.03519680 3.29829170 1.60891960
Ar 24.11402610 5.67684090 0.36065900
Ar 45.52624980 1.86108260 22.77293530
Ar 24.99652610 22.42774720 3.83090410
Ar 28.44385620 22.13696150 12.65986250
Ar 26.79438390 3.12193610 4.98789590
Ar 25.40373320 2.79542450 7.89152310
Ar 42.34638840 19.52917070 10.00424310
Ar 24.07477730 1.47735010 12.40115550
Ar 25.84802210 22.87349930 10.24888580
Ar 25.35764980 4.61861920 11.42827540
Ar 45.70264270 21.13645210 15.87796350
Ar 23.37632350 0.44676500 19.27151210
Ar 23.87284590 2.18841580 16.34539360
Ar 43.42649980 4.49334840 21.53943760
Ar 43.58724360 6.16321710 1.47970920
Ar 25.86462500 6.41202340 3.07649180
Ar 25.12386780 9.47533260 1.29353590
Ar 45.53679100 9.70910670 3.66414330
Ar 23.34801670 2.99169510 3.66590380
Ar 24.42961740 6.07304300 7.26775920
Ar 30.51610720 9.83428840 6.41617790
Ar 44.60005540 5.68439930 9.56780570
Ar 26.98403440 7.35764130 9.46461360
Ar 27.80086500 5.58218910 13.91913280
Ar 28.83051490 10.07988970 12.35835510
Ar 24.24515560 7.37087950 12.59987710
Ar 23.80620310 4.60055190 19.20396870
Ar 25.34842210 9.40059900 20.45691850
Ar 26.50976860 9.21903370 15.34617450
Ar 44.02419870 7.42545120 19.04465030
Ar 45.22512410 11.09251460 20.47474230
Ar 25.45688890 8.97260790 5.87466840
Ar 45.59813280 12.67734970 0.66844250
Ar 44.24815960 15.82398080 4.55782650
Ar 40.57200920 8.39023430 6.92148560
Kr 27.60471300 10.94344370 8.14411110
Ar 26.36560740 15.31582390 5.18744180
Ar 24.17806930 12.55068130 7.35940260
Ar 23.10245960 9.53438460 9.88317790
Ar 25.01950460 12.54072710 10.50072260
Ar 25.67469010 16.21800430 11.57524260
Ar 45.42292960 13.87306940 12.79944710
Kr 22.91181930 10.87328500 14.53297570
Ar 25.61833160 12.46997760 21.66969790
Ar 26.62146680 15.85005120 19.02709800
Ar 42.99015190 16.96064010 21.05431360
Ar 24.32653750 16.14854850 2.04977540
Ar 26.53899850 18.29080760 3.19725280
Ar 28.70614510 22.48884530 3.13417830
Ar 23.09516100 19.69827930 4.12063140
Kr 23.44856980 17.14092240 7.19518420
Ar 43.87520300 16.25942600 9.14938700
Ar 27.38344270 20.59435780 5.38267110
Ar 44.37032580 22.64251950 7.78399240
Ar 45.31945620 18.44262160 11.13665790
Ar 24.68693920 15.69982940 15.04996860
Ar 25.59020480 19.63228010 8.74712440
Ar 25.67324260 17.21633660 22.35614280
Ar 45.15582710 13.64866050 15.93490760
Ar 26.18072920 20.75792480 0.85617940
Ar 26.72554710 22.61416030 16.59334730
Kr 23.33540110 19.66541090 22.35582480
Ar 27.99808590 18.80837990 20.64866110
Ar 31.64493060 2.37290240 0.52003300
Ar 30.92463820 2.85414220 18.97057830
Ar 29.31457720 5.19317910 0.53631990
Ar 27.86389380 0.65058210 7.23482570
Ar 35.82759480 0.06773580 7.87206790
Ar 30.08350710 3.82791700 4.30681670
Ar 28.18311070 4.02907420 9.05900790
Ar 30.21754930 2.68948470 12.45970180
Ar 30.76719410 19.24022650 12.83653730
Ar 32.85517620 21.84701180 7.53922610
Ar 27.16093500 2.38567900 14.31481560
Ar 26.49918970 3.42447960 21.04151360
Kr 31.62338870 22.36592970 19.75921290
Ar 29.94507730 1.29146070 16.13032750
Ar 27.97244210 6.35968110 20.76539730
Kr 28.23491500 9.05233000 22.27535980
Ar 32.81415690 5.41546950 22.56724830
Ar 31.72862800 8.99075580 22.33025250
Ar 28.68012120 9.08956830 3.11459490
Ar 28.66954920 6.57674230 6.33177860
Ar 30.68001240 22.87494260 10.40800380
Ar 31.40969820 6.87169860 4.19315860
Ar 30.28342460 6.43140070 10.88442410
Ar 34.32039540 5.19439580 10.00302490
Ar 33.15416400 21.79451270 13.92535730
Ar 31.47191890 4.01940020 15.31877170
Ar 30.95894520 7.78244530 15.41175800
Ar 28.49861870 4.72015920 17.68702040
Ar 33.84446140 4.44961600 3.27163680
Ar 32.80565850 5.94077560 17.73847680
Ar 30.07848550 7.96025800 18.82062700
Ar 30.56616140 13.04797950 1.71116400
Ar 34.64435790 14.25575070 1.81874550
Ar 32.31319400 14.53710220 21.72982140
Ar 28.14015090 12.20995610 4.77757400
Ar 32.15847680 13.10175530 5.63227160
Ar 34.54753720 11.08839230 7.54810910
Ar 31.26948070 16.23537540 1.53801720
Ar 26.80266190 14.74633470 8.65790010
Kr 31.76487740 9.58564670 10.09910020
Ar 32.65555130 9.76796690 13.30809420
Ar 30.95489060 12.72752180 9.38190260
Ar 25.87783150 12.27447470 13.86144170
Ar 28.92289160 10.97642850 16.04946850
Ar 32.01117910 10.64916780 18.06387350
Ar 31.02833790 13.19525660 13.88229570
Ar 25.62015920 12.38400330 18.37010940
Ar 27.47062530 14.45166470 1.49976060
Ar 34.52908830 17.80188520 22.44417730
Ar 32.65954660 21.29093090 22.65958960
Ar 29.40984660 19.23607070 1.02514300
Ar 29.70125720 15.81240470 4.96270420
Ar 30.95662560 15.91108230 8.21312840
Ar 30.91001960 18.98666910 5.25212230
Ar 28.18688970 18.05748400 7.61059850
Ar 28.93607800 15.30167120 11.77138740
Ar 28.44467430 17.22530680 14.40338870
Ar 29.88301730 19.66151500 9.74737380
Ar 25.19924880 19.71642050 12.59608230
Ar 29.84704940 11.96017300 21.31175380
Ar 28.89601450 15.83984650 21.83936000
Ar 29.58724970 20.13859040 17.11113810
Ar 24.69829880 19.38595650 19.12348710
Kr 35.52681220 0.08885140 0.71249090
Ar 38.19584870 2.38480140 2.98912670
Ar 38.68543610 3.42924640 22.65231830
Ar 32.55177130 1.44818510 4.22515460
Ar 33.14207770 20.78879440 2.94468250
Kr 36.49304820 2.44109150 10.28746820
Ar 33.32865180 7.36806840 7.23159210
Ar 32.13960140 3.03977470 7.21792650
Ar 33.54168500 2.14733440 12.97515860
Ar 36.67939790 22.45059840 15.65817410
Ar 39.08028400 0.03837370 12.56225230
Ar 35.47000810 22.34806220 11.68529860
Ar 33.68718700 0.89300950 17.28521980
Ar 36.64084700 22.05159790 19.04613690
Ar 37.24485050 3.43399780 14.43016180
Ar 33.81842030 1.61883850 20.96879860
Ar 36.03522490 5.41123460 21.60342620
Ar 38.27359930 8.59897860 4.67244060
Ar 37.88844140 8.55645970 20.42974720
Ar 35.02994850 8.39809300 1.55491330
Ar 35.64135900 4.93197510 6.12537090
Ar 40.07607760 3.81108470 10.83756000
Ar 39.71085670 5.62853640 3.79100670
Ar 36.33120590 13.45069040 8.97146090
Ar 34.78687550 5.40567390 13.42460970
Ar 38.62487930 6.59610470 12.57572600
Kr 35.79851270 9.23443550 12.21804640
Ar 34.67666820 8.02143760 15.86434850
Ar 36.46763810 3.16984520 18.00427310
Ar 37.19039170 6.43776190 17.88546650
Ar 36.20861410 10.64270880 18.17745820
Ar 34.72345500 8.74706940 20.73904040
Ar 34.12513280 11.72532990 22.70517860
Ar 42.24772610 11.58984580 4.51005770
Ar 38.59679860 13.75033170 1.25809180
Ar 34.36970540 17.33999740 3.36158960
Ar 32.58014950 10.91864420 3.31005610
Ar 35.13966390 15.01963710 5.62270540
Ar 40.77862150 16.87702320 6.96709190
Ar 34.04399590 17.08597220 8.60065880
Ar 34.12406940 12.50645110 11.49661060
Ar 38.14594350 13.07731560 13.20520930
Ar 33.64488450 14.11223140 16.50575490
Ar 36.46685670 16.35761620 14.53585230
Ar 35.38882410 11.46183950 15.20437790
Ar 37.92762080 12.32688050 20.88529860
Ar 35.12274170 13.39690770 19.74150490
Ar 32.07280510 18.57255360 19.65282580
Ar 36.95437270 15.63180300 21.99374360
Ar 41.39793910 17.59775250 3.89121700
Ar 36.52616980 19.71496250 1.29814950
Ar 38.08820940 18.38939520 4.48702700
Kr 37.66381540 16.64076880 7.83810750
Ar 40.41762490 14.34548190 11.07520050
Ar 36.34134530 22.30001660 4.39379770
Ar 35.07596100 19.36400060 6.24847400
Kr 32.39115030 16.25384940 11.18844500
Ar 33.58519720 17.87653440 13.99157950
Ar 36.43200220 19.36783160 9.61706840
Ar 37.12487620 19.36905340 17.15152440
Ar 29.80260600 16.51815210 17.36483490
Ar 34.67250670 16.91098030 17.84480560
Ar 40.17205170 17.27666780 17.97902550
Ar 32.72908900 20.05607710 16.62995530
Ar 39.05925620 0.32269390 22.15369070
Ar 44.43919480 0.29006150 3.89109360
Ar 42.25518690 1.07665220 21.83248980
Ar 39.51622510 22.02970440 2.75418620
Ar 38.81826640 1.28486660 8.38520460
Ar 44.94972130 3.18473330 6.93890080
Ar 41.76163860 3.10004030 4.94363460
Ar 41.90503030 4.97536060 7.92980660
Ar 38.63958420 20.47813000 7.29337390
Ar 44.39652110 22.22369940 12.96370490
Ar 44.53159120 2.27205380 10.27252200
Ar 41.87628880 0.74459420 15.35627600
Ar 42.38512560 19.47820670 17.05448560
Ar 42.67076110 20.62577140 21.06439750
Ar 42.93637540 2.58078580 18.39532490
Ar 39.64392530 0.42614000 18.37013600
Ar 38.41416900 9.70671830 1.27665930
Ar 41.34396200 2.85752880 1.85845650
Ar 41.22655230 8.01016350 21.50709450
Ar 41.27047270 8.36354060 3.01425680
Kr 38.52872910 6.07303620 8.24907310
Ar 44.20064060 4.55824840 15.97270790
Ar 44.01624300 6.28320240 5.12673700
Ar 41.04836590 7.39908500 10.03182900
Ar 41.41882280 4.99487590 13.63498360
Ar 25.11606060 5.87346740 16.01953800
Ar 43.81848050 8.09328750 13.12634710
Ar 38.34156020 9.76817650 15.36117890
Ar 39.62731420 3.79292280 17.43776310
Ar 40.66138580 5.35075660 19.90285790
Ar 41.20290550 8.53530160 14.57087310
Ar 40.31999170 8.63947840 17.83614180
Ar 41.94141130 12.03010260 19.06437060
Ar 23.80466660 13.16524950 3.97089010
Ar 42.29550570 11.15441730 0.01767220
Ar 39.25761240 13.94505650 5.67493070
Ar 35.95405520 11.69660770 4.07659040
Ar 37.72974060 9.54767420 9.19682480
Ar 44.54488590 9.58549630 6.74560890
Ar 35.91124550 16.03030940 11.23652540
Kr 41.03295970 10.88032250 9.57751850
Ar 42.15991470 12.05514630 13.60327100
Ar 43.85763470 12.85023840 10.33305720
Ar 37.36274250 20.09206000 13.28489400
Ar 43.06271880 10.05941370 16.62179350
Ar 45.43905200 14.47838490 19.88886440
Ar 23.89198450 9.49010170 17.49787800
Ar 40.38216190 14.67941050 20.55223450
Ar 39.83794590 17.40780490 0.45964700
Ar 42.26150040 14.19791570 1.95714960
Ar 43.97488080 17.52857290 1.25264770
Ar 42.40583000 20.55542860 2.33736910
Ar 42.06657280 13.87868020 7.45679530
Ar 40.39318520 17.35137420 11.35196650
Ar 43.41138660 18.90828390 6.55133680
Ar 41.66944900 22.72138810 5.73404710
Ar 41.79976600 15.12530970 16.13173750
Ar 41.41632000 19.98310860 13.93034950
Ar 41.55617230 0.08167540 10.16856140
Ar 43.51673770 16.84610170 13.81391390
Ar 38.51376390 13.65893620 16.53023940
Ar 45.28381550 16.95195920 17.67748170
Kr 26.26223090 18.99479610 16.16398360
Ar 38.62582560 19.87797970 20.92246420
Ar 26.46683870 0.22410490 44.24767280
Ar 26.03519680 3.29829170 24.48507160
Ar 24.11402610 5.67684090 23.23681100
Ar 45.52624980 1.86108260 45.64908730
Ar 24.99652610 22.42774720 26.70705610
Ar 28.44385620 22.13696150 35.53601450
Ar 26.79438390 3.12193610 27.86404790
Ar 25.40373320 2.79542450 30.76767510
Ar 42.34638840 19.52917070 32.88039510
Ar 24.07477730 1.47735010 35.27730750
Ar 25.84802210 22.87349930 33.12503780
Ar 25.35764980 4.61861920 34.30442740
Ar 45.70264270 21.13645210 38.75411550
Ar 23.37632350 0.44676500 42.14766410
Ar 23.87284590 2.18841580 39.22154560
Ar 43.42649980 4.49334840 44.41558960
Ar 43.58724360 6.16321710 24.35586120
Ar 25.86462500 6.41202340 25.95264380
Ar 25.12386780 9.47533260 24.16968790
Ar 45.53679100 9.70910670 26.54029530
Ar 23.34801670 2.99169510 26.54205580
Ar 24.42961740 6.07304300 30.14391120
Ar 30.51610720 9.83428840 29.29232990
Ar 44.60005540 5.68439930 32.44395770
Ar 26.98403440 7.35764130 32.34076560
Ar 27.80086500 5.58218910 36.79528480
Ar 28.83051490 10.07988970 35.23450710
Ar 24.24515560 7.37087950 35.47602910
Ar 23.80620310 4.60055190 42.08012070
Ar 25.34842210 9.40059900 43.33307050
Ar 26.50976860 9.21903370 38.22232650
Ar 44.02419870 7.42545120 41.92080230
Ar 45.22512410 11.09251460 43.35089430
Ar 25.45688890 8.97260790 28.75082040
Ar 45.59813280 12.67734970 23.54459450
Ar 44.24815960 15.82398080 27.43397850
Ar 40.57200920 8.39023430 29.79763760
Kr 27.60471300 10.94344370 31.02026310
Ar 26.36560740 15.31582390 28.06359380
Ar 24.17806930 12.55068130 30.23555460
Ar 23.10245960 9.53438460 32.75932990
Ar 25.01950460 12.54072710 33.37687460
Ar 25.67469010 16.21800430 34.45139460
Ar 45.42292960 13.87306940 35.67559910
Kr 22.91181930 10.87328500 37.40912770
Ar 25.61833160 12.46997760 44.54584990
Ar 26.62146680 15.85005120 41.90325000
Ar 42.99015190 16.96064010 43.93046560
Ar 24.32653750 16.14854850 24.92592740
Ar 26.53899850 18.29080760 26.07340480
Ar 28.70614510 22.48884530 26.01033030
Ar 23.09516100 19.69827930 26.99678340
Kr 23.44856980 17.14092240 30.07133620
Ar 43.87520300 16.25942600 32.02553900
Ar 27.38344270 20.59435780 28.25882310
Ar 44.37032580 22.64251950 30.66014440
Ar 45.31945620 18.44262160 34.01280990
Ar 24.68693920 15.69982940 37.92612060
Ar 25.59020480 19.63228010 31.62327640
Ar 25.67324260 17.21633660 45.23229480
Ar 45.15582710 13.64866050 38.81105960
Ar 26.18072920 20.75792480 23.73233140
Ar 26.72554710 22.61416030 39.46949930
Kr 23.33540110 19.66541090 45.23197680
Ar 27.99808590 18.80837990 43.52481310
Ar 31.64493060 2.37290240 23.39618500
Ar 30.92463820 2.85414220 41.84673030
Ar 29.31457720 5.19317910 23.41247190
Ar 27.86389380 0.65058210 30.11097770
Ar 35.82759480 0.06773580 30.74821990
Ar 30.08350710 3.82791700 27.18296870
Ar 28.18311070 4.02907420 31.93515990
Ar 30.21754930 2.68948470 35.33585380
Ar 30.76719410 19.24022650 35.71268930
Ar 32.85517620 21.84701180 30.41537810
Ar 27.16093500 2.38567900 37.19096760
Ar 26.49918970 3.42447960 43.91766560
Kr 31.62338870 22.36592970 42.63536490
Ar 29.94507730 1.29146070 39.00647950
Ar 27.97244210 6.35968110 43.64154930
Kr 28.23491500 9.05233000 45.15151180
Ar 32.81415690 5.41546950 45.44340030
Ar 31.72862800 8.99075580 45.20640450
Ar 28.68012120 9.08956830 25.99074690
Ar 28.66954920 6.57674230 29.20793060
Ar 30.68001240 22.87494260 33.28415580
Ar 31.40969820 6.87169860 27.06931060
Ar 30.28342460 6.43140070 33.76057610
Ar 34.32039540 5.19439580 32.87917690
Ar 33.15416400 21.79451270 36.80150930
Ar 31.47191890 4.01940020 38.19492370
Ar 30.95894520 7.78244530 38.28791000
Ar 28.49861870 4.72015920 40.56317240
Ar 33.84446140 4.44961600 26.14778880
Ar 32.80565850 5.94077560 40.61462880
Ar 30.07848550 7.96025800 41.69677900
Ar 30.56616140 13.04797950 24.58731600
Ar 34.64435790 14.25575070 24.69489750
Ar 32.31319400 14.53710220 44.60597340
Ar 28.14015090 12.20995610 27.65372600
Ar 32.15847680 13.10175530 28.50842360
Ar 34.54753720 11.08839230 30.42426110
Ar 31.26948070 16.23537540 24.41416920
Ar 26.80266190 14.74633470 31.53405210
Kr 31.76487740 9.58564670 32.97525220
Ar 32.65555130 9.76796690 36.18424620
Ar 30.95489060 12.72752180 32.25805460
Ar 25.87783150 12.27447470 36.73759370
Ar 28.92289160 10.97642850 38.92562050
Ar 32.01117910 10.64916780 40.94002550
Ar 31.02833790 13.19525660 36.75844770
Ar 25.62015920 12.38400330 41.24626140
Ar 27.47062530 14.45166470 24.37591260
Ar 34.52908830 17.80188520 45.32032930
Ar 32.65954660 21.29093090 45.53574160
Ar 29.40984660 19.23607070 23.90129500
Ar 29.70125720 15.81240470 27.83885620
Ar 30.95662560 15.91108230 31.08928040
Ar 30.91001960 18.98666910 28.12827430
Ar 28.18688970 18.05748400 30.48675050
Ar 28.93607800 15.30167120 34.64753940
Ar 28.44467430 17.22530680 37.27954070
Ar 29.88301730 19.66151500 32.62352580
Ar 25.19924880 19.71642050 35.47223430
Ar 29.84704940 11.96017300 44.18790580
Ar 28.89601450 15.83984650 44.71551200
Ar 29.58724970 20.13859040 39.98729010
Ar 24.69829880 19.38595650 41.99963910
Kr 35.52681220 0.08885140 23.58864290
Ar 38.19584870 2.38480140 25.86527870
Ar 38.68543610 3.42924640 45.52847030
Ar 32.55177130 1.44818510 27.10130660
Ar 33.14207770 20.78879440 25.82083450
Kr 36.49304820 2.44109150 33.16362020
Ar 33.32865180 7.36806840 30.10774410
Ar 32.13960140 3.03977470 30.09407850
Ar 33.54168500 2.14733440 35.85131060
Ar 36.67939790 22.45059840 38.53432610
Ar 39.08028400 0.03837370 35.43840430
Ar 35.47000810 22.34806220 34.56145060
Ar 33.68718700 0.89300950 40.16137180
Ar 36.64084700 22.05159790 41.92228890
Ar 37.24485050 3.43399780 37.30631380
Ar 33.81842030 1.61883850 43.84495060
Ar 36.03522490 5.41123460 44.47957820
Ar 38.27359930 8.59897860 27.54859260
Ar 37.88844140 8.55645970 43.30589920
Ar 35.02994850 8.39809300 24.43106530
Ar 35.64135900 4.93197510 29.00152290
Ar 40.07607760 3.81108470 33.71371200
Ar 39.71085670 5.62853640 26.66715870
Ar 36.33120590 13.45069040 31.84761290
Ar 34.78687550 5.40567390 36.30076170
Ar 38.62487930 6.59610470 35.45187800
Kr 35.79851270 9.23443550 35.09419840
Ar 34.67666820 8.02143760 38.74050050
Ar 36.46763810 3.16984520 40.88042510
Ar 37.19039170 6.43776190 40.76161850
Ar 36.20861410 10.64270880 41.05361020
Ar 34.72345500 8.74706940 43.61519240
Ar 34.12513280 11.72532990 45.58133060
Ar 42.24772610 11.58984580 27.38620970
Ar 38.59679860 13.75033170 24.13424380
Ar 34.36970540 17.33999740 26.23774160
Ar 32.58014950 10.91864420 26.18620810
Ar 35.13966390 15.01963710 28.49885740
Ar 40.77862150 16.87702320 29.84324390
Ar 34.04399590 17.08597220 31.47681080
Ar 34.12406940 12.50645110 34.37276260
Ar 38.14594350 13.07731560 36.08136130
Ar 33.64488450 14.11223140 39.38190690
Ar 36.46685670 16.35761620 37.41200430
Ar 35.38882410 11.46183950 38.08052990
Ar 37.92762080 12.32688050 43.76145060
Ar 35.12274170 13.39690770 42.61765690
Ar 32.07280510 18.57255360 42.52897780
Ar 36.95437270 15.63180300 44.86989560
Ar 41.39793910 17.59775250 26.76736900
Ar 36.52616980 19.71496250 24.17430150
Ar 38.08820940 18.38939520 27.36317900
Kr 37.66381540 16.64076880 30.71425950
Ar 40.41762490 14.34548190 33.95135250
Ar 36.34134530 22.30001660 27.26994970
Ar 35.07596100 19.36400060 29.12462600
Kr 32.39115030 16.25384940 34.06459700
Ar 33.58519720 17.87653440 36.86773150
Ar 36.43200220 19.36783160 32.49322040
Ar 37.12487620 19.36905340 40.02767640
Ar 29.80260600 16.51815210 40.24098690
Ar 34.67250670 16.91098030 40.72095760
Ar 40.17205170 17.27666780 40.85517750
Ar 32.72908900 20.05607710 39.50610730
Ar 39.05925620 0.32269390 45.02984270
Ar 44.43919480 0.29006150 26.76724560
Ar 42.25518690 1.07665220 44.70864180
Ar 39.51622510 22.02970440 25.63033820
Ar 38.81826640 1.28486660 31.26135660
Ar 44.94972130 3.18473330 29.81505280
Ar 41.76163860 3.10004030 27.81978660
Ar 41.90503030 4.97536060 30.80595860
Ar 38.63958420 20.47813000 30.16952590
Ar 44.39652110 22.22369940 35.83985690
Ar 44.53159120 2.27205380 33.14867400
Ar 41.87628880 0.74459420 38.23242800
Ar 42.38512560 19.47820670 39.93063760
Ar 42.67076110 20.62577140 43.94054950
Ar 42.93637540 2.58078580 41.27147690
Ar 39.64392530 0.42614000 41.24628800
Ar 38.41416900 9.70671830 24.15281130
Ar 41.34396200 2.85752880 24.73460850
Ar 41.22655230 8.01016350 44.38324650
Ar 41.27047270 8.36354060 25.89040880
Kr 38.52872910 6.07303620 31.12522510
Ar 44.20064060 4.55824840 38.84885990
Ar 44.01624300 6.28320240 28.00288900
Ar 41.04836590 7.39908500 32.90798100
Ar 41.41882280 4.99487590 36.51113560
Ar 25.11606060 5.87346740 38.89569000
Ar 43.81848050 8.09328750 36.00249910
Ar 38.34156020 9.76817650 38.23733090
Ar 39.62731420 3.79292280 40.31391510
Ar 40.66138580 5.35075660 42.77900990
Ar 41.20290550 8.53530160 37.44702510
Ar 40.31999170 8.63947840 40.71229380
Ar 41.94141130 12.03010260 41.94052260
Ar 23.80466660 13.16524950 26.84704210
Ar 42.29550570 11.15441730 22.89382420
Ar 39.25761240 13.94505650 28.55108270
Ar 35.95405520 11.69660770 26.95274240
Ar 37.72974060 9.54767420 32.07297680
Ar 44.54488590 9.58549630 29.62176090
Ar 35.91124550 16.03030940 34.11267740
Kr 41.03295970 10.88032250 32.45367050
Ar 42.15991470 12.05514630 36.47942300
Ar 43.85763470 12.85023840 33.20920920
Ar 37.36274250 20.09206000 36.16104600
Ar 43.06271880 10.05941370 39.49794550
Ar 45.43905200 14.47838490 42.76501640
Ar 23.89198450 9.49010170 40.37403000
Ar 40.38216190 14.67941050 43.42838650
Ar 39.83794590 17.40780490 23.33579900
Ar 42.26150040 14.19791570 24.83330160
Ar 43.97488080 17.52857290 24.12879970
Ar 42.40583000 20.55542860 25.21352110
Ar 42.06657280 13.87868020 30.33294730
Ar 40.39318520 17.35137420 34.22811850
Ar 43.41138660 18.90828390 29.42748880
Ar 41.66944900 22.72138810 28.61019910
Ar 41.79976600 15.12530970 39.00788950
Ar 41.41632000 19.98310860 36.80650150
Ar 41.55617230 0.08167540 33.04471340
Ar 43.51673770 16.84610170 36.69006590
Ar 38.51376390 13.65893620 39.40639140
Ar 45.28381550 16.95195920 40.55363370
Kr 26.26223090 18.99479610 39.04013560
Ar 38.62582560 19.87797970 43.79861620
Ar 26.46683870 23.10025690 21.37152080
Ar 26.03519680 26.17444370 1.60891960
Ar 24.11402610 28.55299290 0.36065900
Ar 45.52624980 24.73723460 22.77293530
Ar 24.99652610 45.30389920 3.83090410
Ar 28.44385620 45.01311350 12.65986250
Ar 26.79438390 25.99808810 4.98789590
Ar 25.40373320 25.67157650 7.89152310
Ar 42.34638840 42.40532270 10.00424310
Ar 24.07477730 24.35350210 12.40115550
Ar 25.84802210 45.74965130 10.24888580
Ar 25.35764980 27.49477120 11.42827540
Ar 45.70264270 44.01260410 15.87796350
Ar 23.37632350 23.32291700 19.27151210
Ar 23.87284590 25.06456780 16.34539360
Ar 43.42649980 27.36950040 21.53943760
Ar 43.58724360 29.03936910 1.47970920
Ar 25.86462500 29.28817540 3.07649180
Ar 25.12386780 32.35148460 1.29353590
Ar 45.53679100 32.58525870 3.66414330
Ar 23.34801670 25.86784710 3.66590380
Ar 24.42961740 28.94919500 7.26775920
Ar 30.51610720 32.71044040 6.41617790
Ar 44.60005540 28.56055130 9.56780570
Ar 26.98403440 30.23379330 9.46461360
Ar 27.80086500 28.45834110 13.91913280
Ar 28.83051490 32.95604170 12.35835510
Ar 24.24515560 30.24703150 12.59987710
Ar 23.80620310 27.47670390 19.20396870
Ar 25.34842210 32.27675100 20.45691850
Ar 26.50976860 32.09518570 15.34617450
Ar 44.02419870 30.30160320 19.04465030
Ar 45.22512410 33.96866660 20.47474230
Ar 25.45688890 31.84875990 5.87466840
Ar 45.59813280 35.55350170 0.66844250
Ar 44.24815960 38.70013280 4.55782650
Ar 40.57200920 31.26638630 6.92148560
Kr 27.60471300 33.81959570 8.14411110
Ar 26.36560740 38.19197590 5.18744180
Ar 24.17806930 35.42683330 7.35940260
Ar 23.10245960 32.41053660 9.88317790
Ar 25.01950460 35.41687910 10.50072260
Ar 25.67469010 39.09415630 11.57524260
Ar 45.42292960 36.74922140 12.79944710
Kr 22.91181930 33.74943700 14.53297570
Ar 25.61833160 35.34612960 21.66969790
Ar 26.62146680 38.72620320 19.02709800
Ar 42.99015190 39.83679210 21.05431360
Ar 24.32653750 39.02470050 2.04977540
Ar 26.53899850 41.16695960 3.19725280
Ar 28.70614510 45.36499730 3.13417830
Ar 23.09516100 42.57443130 4.12063140
Kr 23.44856980 40.01707440 7.19518420
Ar 43.87520300 39.13557800 9.14938700
Ar 27.38344270 43.47050980 5.38267110
Ar 44.37032580 45.51867150 7.78399240
Ar 45.31945620 41.31877360 11.13665790
Ar 24.68693920 38.57598140 15.04996860
Ar 25.59020480 42.50843210 8.74712440
Ar 25.67324260 40.09248860 22.35614280
Ar 45.15582710 36.52481250 15.93490760
Ar 26.18072920 43.63407680 0.85617940
Ar 26.72554710 45.49031230 16.59334730
Kr 23.33540110 42.54156290 22.35582480
Ar 27.99808590 41.68453190 20.64866110
Ar 31.64493060 25.24905440 0.52003300
Ar 30.92463820 25.73029420 18.97057830
Ar 29.31457720 28.06933110 0.53631990
Ar 27.86389380 23.52673410 7.23482570
Ar 35.82759480 22.94388780 7.87206790
Ar 30.08350710 26.70406900 4.30681670
Ar 28.18311070 26.90522620 9.05900790
Ar 30.21754930 25.56563670 12.45970180
Ar 30.76719410 42.11637850 12.83653730
Ar 32.85517620 44.72316380 7.53922610
Ar 27.16093500 25.26183100 14.31481560
Ar 26.49918970 26.30063160 21.04151360
Kr 31.62338870 45.24208170 19.75921290
Ar 29.94507730 24.16761270 16.13032750
Ar 27.97244210 29.23583310 20.76539730
Kr 28.23491500 31.92848200 22.27535980
Ar 32.81415690 28.29162150 22.56724830
Ar 31.72862800 31.86690780 22.33025250
Ar 28.68012120 31.96572030 3.11459490
Ar 28.66954920 29.45289430 6.33177860
Ar 30.68001240 45.75109460 10.40800380
Ar 31.40969820 29.74785060 4.19315860
Ar 30.28342460 29.30755270 10.88442410
Ar 34.32039540 28.07054780 10.00302490
Ar 33.15416400 44.67066470 13.92535730
Ar 31.47191890 26.89555220 15.31877170
Ar 30.95894520 30.65859730 15.41175800
Ar 28.49861870 27.59631120 17.68702040
Ar 33.84446140 27.32576800 3.27163680
Ar 32.80565850 28.81692760 17.73847680
Ar 30.07848550 30.83641000 18.82062700
Ar 30.56616140 35.92413150 1.71116400
Ar 34.64435790 37.13190270 1.81874550
Ar 32.31319400 37.41325420 21.72982140
Ar 28.14015090 35.08610810 4.77757400
Ar 32.15847680 35.97790730 5.63227160
Ar 34.54753720 33.96454430 7.54810910
Ar 31.26948070 39.11152740 1.53801720
Ar 26.80266190 37.62248670 8.65790010
Kr 31.76487740 32.46179870 10.09910020
Ar 32.65555130 32.64411890 13.30809420
Ar 30.95489060 35.60367380 9.38190260
Ar 25.87783150 35.15062670 13.86144170
Ar 28.92289160 33.85258050 16.04946850
Ar 32.01117910 33.52531980 18.06387350
Ar 31.02833790 36.07140860 13.88229570
Ar 25.62015920 35.26015530 18.37010940
Ar 27.47062530 37.32781670 1.49976060
Ar 34.52908830 40.67803720 22.44417730
Ar 32.65954660 44.16708290 22.65958960
Ar 29.40984660 42.11222270 1.02514300
Ar 29.70125720 38.68855670 4.96270420
Ar 30.95662560 38.78723430 8.21312840
Ar 30.91001960 41.86282110 5.25212230
Ar 28.18688970 40.93363600 7.61059850
Ar 28.93607800 38.17782320 11.77138740
Ar 28.44467430 40.10145880 14.40338870
Ar 29.88301730 42.53766700 9.74737380
Ar 25.19924880 42.59257250 12.59608230
Ar 29.84704940 34.83632500 21.31175380
Ar 28.89601450 38.71599850 21.83936000
Ar 29.58724970 43.01474240 17.11113810
Ar 24.69829880 42.26210850 19.12348710
Kr 35.52681220 22.96500340 0.71249090
Ar 38.19584870 25.26095340 2.98912670
Ar 38.68543610 26.30539840 22.65231830
Ar 32.55177130 24.32433710 4.22515460
Ar 33.14207770 43.66494640 2.94468250
Kr 36.49304820 25.31724350 10.28746820
Ar 33.32865180 30.24422040 7.23159210
Ar 32.13960140 25.91592670 7.21792650
Ar 33.54168500 25.02348640 12.97515860
Ar 36.67939790 45.32675040 15.65817410
Ar 39.08028400 22.91452570 12.56225230
Ar 35.47000810 45.22421420 11.68529860
Ar 33.68718700 23.76916150 17.28521980
Ar 36.64084700 44.92774990 19.04613690
Ar 37.24485050 26.31014980 14.43016180
Ar 33.81842030 24.49499050 20.96879860
Ar 36.03522490 28.28738660 21.60342620
Ar 38.27359930 31.47513060 4.67244060
Ar 37.88844140 31.43261170 20.42974720
Ar 35.02994850 31.27424500 1.55491330
Ar 35.64135900 27.80812710 6.12537090
Ar 40.07607760 26.68723670 10.83756000
Ar 39.71085670 28.50468840 3.79100670
Ar 36.33120590 36.32684240 8.97146090
Ar 34.78687550 28.28182590 13.42460970
Ar 38.62487930 29.47225670 12.57572600
Kr 35.79851270 32.11058750 12.21804640
Ar 34.67666820 30.89758960 15.86434850
Ar 36.46763810 26.04599720 18.00427310
Ar 37.19039170 29.31391390 17.88546650
Ar 36.20861410 33.51886080 18.17745820
Ar 34.72345500 31.62322140 20.73904040
Ar 34.12513280 34.60148190 22.70517860
Ar 42.24772610 34.46599780 4.51005770
Ar 38.59679860 36.62648370 1.25809180
Ar 34.36970540 40.21614940 3.36158960
Ar 32.58014950 33.79479620 3.31005610
Ar 35.13966390 37.89578910 5.62270540
Ar 40.77862150 39.75317520 6.96709190
Ar 34.04399590 39.96212420 8.60065880
Ar 34.12406940 35.38260310 11.49661060
Ar 38.14594350 35.95346760 13.20520930
Ar 33.64488450 36.98838340 16.50575490
Ar 36.46685670 39.23376820 14.53585230
Ar 35.38882410 34.33799150 15.20437790
Ar 37.92762080 35.20303250 20.88529860
Ar 35.12274170 36.27305970 19.74150490
Ar 32.07280510 41.44870560 19.65282580
Ar 36.95437270 38.50795500 21.99374360
Ar 41.39793910 40.47390450 3.89121700
Ar 36.52616980 42.59111450 1.29814950
Ar 38.08820940 41.26554720 4.48702700
Kr 37.66381540 39.51692080 7.83810750
Ar 40.41762490 37.22163390 11.07520050
Ar 36.34134530 45.17616860 4.39379770
Ar 35.07596100 42.24015260 6.24847400
Kr 32.39115030 39.13000140 11.18844500
Ar 33.58519720 40.75268640 13.99157950
Ar 36.43200220 42.24398360 9.61706840
Ar 37.12487620 42.24520540 17.15152440
Ar 29.80260600 39.39430410 17.36483490
Ar 34.67250670 39.78713230 17.84480560
Ar 40.17205170 40.15281980 17.97902550
Ar 32.72908900 42.93222910 16.62995530
Ar 39.05925620 23.19884590 22.15369070
Ar 44.43919480 23.16621350 3.89109360
Ar 42.25518690 23.95280420 21.83248980
Ar 39.51622510 44.90585640 2.75418620
Ar 38.81826640 24.16101860 8.38520460
Ar 44.94972130 26.06088530 6.93890080
Ar 41.76163860 25.97619230 4.94363460
Ar 41.90503030 27.85151260 7.92980660
Ar 38.63958420 43.35428200 7.29337390
Ar 44.39652110 45.09985140 12.96370490
Ar 44.53159120 25.14820580 10.27252200
Ar 41.87628880 23.62074620 15.35627600
Ar 42.38512560 42.35435870 17.05448560
Ar 42.67076110 43.50192340 21.06439750
Ar 42.93637540 25.45693780 18.39532490
Ar 39.64392530 23.30229200 18.37013600
Ar 38.41416900 32.58287030 1.27665930
Ar 41.34396200 25.73368080 1.85845650
Ar 41.22655230 30.88631550 21.50709450
Ar 41.27047270 31.23969260 3.01425680
Kr 38.52872910 28.94918820 8.24907310
Ar 44.20064060 27.43440040 15.97270790
Ar 44.01624300 29.15935440 5.12673700
Ar 41.04836590 30.27523700 10.03182900
Ar 41.41882280 27.87102790 13.63498360
Ar 25.11606060 28.74961940 16.01953800
Ar 43.81848050 30.96943950 13.12634710
Ar 38.34156020 32.64432850 15.36117890
Ar 39.62731420 26.66907480 17.43776310
Ar 40.66138580 28.22690860 19.90285790
Ar 41.20290550 31.41145360 14.57087310
Ar 40.31999170 31.51563040 17.83614180
Ar 41.94141130 34.90625460 19.06437060
Ar 23.80466660 36.04140150 3.97089010
Ar 42.29550570 34.03056930 0.01767220
Ar 39.25761240 36.82120850 5.67493070
Ar 35.95405520 34.57275970 4.07659040
Ar 37.72974060 32.42382620 9.19682480
Ar 44.54488590 32.46164830 6.74560890
Ar 35.91124550 38.90646140 11.23652540
Kr 41.03295970 33.75647450 9.57751850
Ar 42.15991470 34.93129830 13.60327100
Ar 43.85763470 35.72639040 10.33305720
Ar 37.36274250 42.96821200 13.28489400
Ar 43.06271880 32.93556570 16.62179350
Ar 45.43905200 37.35453690 19.88886440
Ar 23.89198450 32.36625370 17.49787800
Ar 40.38216190 37.55556250 20.55223450
Ar 39.83794590 40.28395690 0.45964700
Ar 42.26150040 37.07406770 1.95714960
Ar 43.97488080 40.40472490 1.25264770
Ar 42.40583000 43.43158060 2.33736910
Ar 42.06657280 36.75483220 7.45679530
Ar 40.39318520 40.22752620 11.35196650
Ar 43.41138660 41.78443590 6.55133680
Ar 41.66944900 45.59754010 5.73404710
Ar 41.79976600 38.00146170 16.13173750
Ar 41.41632000 42.85926060 13.93034950
Ar 41.55617230 22.95782740 10.16856140
Ar 43.51673770 39.72225370 13.81391390
Ar 38.51376390 36.53508820 16.53023940
Ar 45.28381550 39.82811120 17.67748170
Kr 26.26223090 41.87094810 16.16398360
Ar 38.62582560 42.75413170 20.92246420
Ar 26.46683870 23.10025690 44.24767280
Ar 26.03519680 26.17444370 24.48507160
Ar 24.11402610 28.55299290 23.23681100
Ar 45.52624980 24.73723460 45.64908730
Ar 24.99652610 45.30389920 26.70705610
Ar 28.44385620 45.01311350 35.53601450
Ar 26.79438390 25.99808810 27.86404790
Ar 25.40373320 25.67157650 30.76767510
Ar 42.34638840 42.40532270 32.88039510
Ar 24.07477730 24.35350210 35.27730750
Ar 25.84802210 45.74965130 33.12503780
Ar 25.35764980 27.49477120 34.30442740
Ar 45.70264270 44.01260410 38.75411550
Ar 23.37632350 23.32291700 42.14766410
Ar 23.87284590 25.06456780 39.22154560
Ar 43.42649980 27.36950040 44.41558960
Ar 43.58724360 29.03936910 24.35586120
Ar 25.86462500 29.28817540 25.95264380
Ar 25.12386780 32.35148460 24.16968790
Ar 45.53679100 32.58525870 26.54029530
Ar 23.34801670 25.86784710 26.54205580
Ar 24.42961740 28.94919500 30.14391120
Ar 30.51610720 32.71044040 29.29232990
Ar 44.60005540 28.56055130 32.44395770
Ar 26.98403440 30.23379330 32.34076560
Ar 27.80086500 28.45834110 36.79528480
Ar 28.83051490 32.95604170 35.23450710
Ar 24.24515560 30.24703150 35.47602910
Ar 23.80620310 27.47670390 42.08012070
Ar 25.34842210 32.27675100 43.33307050
Ar 26.50976860 32.09518570 38.22232650
Ar 44.02419870 30.30160320 41.92080230
Ar 45.22512410 33.96866660 43.35089430
Ar 25.45688890 31.84875990 28.75082040
Ar 45.59813280 35.55350170 23.54459450
Ar 44.24815960 38.70013280 27.43397850
Ar 40.57200920 31.26638630 29.79763760
Kr 27.60471300 33.81959570 31.02026310
Ar 26.36560740 38.19197590 28.06359380
Ar 24.17806930 35.42683330 30.23555460
Ar 23.10245960 32.41053660 32.75932990
Ar 25.01950460 35.41687910 33.37687460
Ar 25.67469010 39.09415630 34.45139460
Ar 45.42292960 36.74922140 35.67559910
Kr 22.91181930 33.74943700 37.40912770
Ar 25.61833160 35.34612960 44.54584990
Ar 26.62146680 38.72620320 41.90325000
Ar 42.99015190 39.83679210 43.93046560
Ar 24.32653750 39.02470050 24.92592740
Ar 26.53899850 41.16695960 26.07340480
Ar 28.70614510 45.36499730 26.01033030
Ar 23.09516100 42.57443130 26.99678340
Kr 23.44856980 40.01707440 30.07133620
Ar 43.87520300 39.13557800 32.02553900
Ar 27.38344270 43.47050980 28.25882310
Ar 44.37032580 45.51867150 30.66014440
Ar 45.31945620 41.31877360 34.01280990
Ar 24.68693920 38.57598140 37.92612060
Ar 25.59020480 42.50843210 31.62327640
Ar 25.67324260 40.09248860 45.23229480
Ar 45.15582710 36.52481250 38.81105960
Ar 26.18072920 43.63407680 23.73233140
Ar 26.72554710 45.49031230 39.46949930
Kr 23.33540110 42.54156290 45.23197680
Ar 27.99808590 41.68453190 43.52481310
Ar 31.64493060 25.24905440 23.39618500
Ar 30.92463820 25.73029420 41.84673030
Ar 29.31457720 28.06933110 23.41247190
Ar 27.86389380 23.52673410 30.11097770
Ar 35.82759480 22.94388780 30.74821990
Ar 30.08350710 26.70406900 27.18296870
Ar 28.18311070 26.90522620 31.93515990
Ar 30.21754930 25.56563670 35.33585380
Ar 30.76719410 42.11637850 35.71268930
Ar 32.85517620 44.72316380 30.41537810
Ar 27.16093500 25.26183100 37.19096760
Ar 26.49918970 26.30063160 43.91766560
Kr 31.62338870 45.24208170 42.63536490
Ar 29.94507730 24.16761270 39.00647950
Ar 27.97244210 29.23583310 43.64154930
Kr 28.23491500 31.92848200 45.15151180
Ar 32.81415690 28.29162150 45.44340030
Ar 31.72862800 31.86690780 45.20640450
Ar 28.68012120 31.96572030 25.99074690
Ar 28.66954920 29.45289430 29.20793060
Ar 30.68001240 45.75109460 33.28415580
Ar 31.40969820 29.74785060 27.06931060
Ar 30.28342460 29.30755270 33.76057610
Ar 34.32039540 28.07054780 32.87917690
Ar 33.15416400 44.67066470 36.80150930
Ar 31.47191890 26.89555220 38.19492370
Ar 30.95894520 30.65859730 38.28791000
Ar 28.49861870 27.59631120 40.56317240
Ar 33.84446140 27.32576800 26.14778880
Ar 32.80565850 28.81692760 40.61462880
Ar 30.07848550 30.83641000 41.69677900
Ar 30.56616140 35.92413150 24.58731600
Ar 34.64435790 37.13190270 24.69489750
Ar 32.31319400 37.41325420 44.60597340
Ar 28.14015090 35.08610810 27.65372600
Ar 32.15847680 35.97790730 28.50842360
Ar 34.54753720 33.96454430 30.42426110
Ar 31.26948070 39.11152740 24.41416920
Ar 26.80266190 37.62248670 31.53405210
Kr 31.76487740 32.46179870 32.97525220
Ar 32.65555130 32.64411890 36.18424620
Ar 30.95489060 35.60367380 32.25805460
Ar 25.87783150 35.15062670 36.73759370
Ar 28.92289160 33.85258050 38.92562050
Ar 32.01117910 33.52531980 40.94002550
Ar 31.02833790 36.07140860 36.75844770
Ar 25.62015920 35.26015530 41.24626140
Ar 27.47062530 37.32781670 24.37591260
Ar 34.52908830 40.67803720 45.32032930
Ar 32.65954660 44.16708290 45.53574160
Ar 29.40984660 42.11222270 23.90129500
Ar 29.70125720 38.68855670 27.83885620
Ar 30.95662560 38.78723430 31.08928040
Ar 30.91001960 41.86282110 28.12827430
Ar 28.18688970 40.93363600 30.48675050
Ar 28.93607800 38.17782320 34.64753940
Ar 28.44467430 40.10145880 37.27954070
Ar 29.88301730 42.53766700 32.62352580
Ar 25.19924880 42.59257250 35.47223430
Ar 29.84704940 34.83632500 44.18790580
Ar 28.89601450 38.71599850 44.71551200
Ar 29.58724970 43.01474240 39.98729010
Ar 24.69829880 42.26210850 41.99963910
Kr 35.52681220 22.96500340 23.58864290
Ar 38.19584870 25.26095340 25.86527870
Ar 38.68543610 26.30539840 45.52847030
Ar 32.55177130 24.32433710 27.10130660
Ar 33.14207770 43.66494640 25.82083450
Kr 36.49304820 25.31724350 33.16362020
Ar 33.32865180 30.24422040 30.10774410
Ar 32.13960140 25.91592670 30.09407850
Ar 33.54168500 25.02348640 35.85131060
Ar 36.67939790 45.32675040 38.53432610
Ar 39.08028400 22.91452570 35.43840430
Ar 35.47000810 45.22421420 34.56145060
Ar 33.68718700 23.76916150 40.16137180
Ar 36.64084700 44.92774990 41.92228890
Ar 37.24485050 26.31014980 37.30631380
Ar 33.81842030 24.49499050 43.84495060
Ar 36.03522490 28.28738660 44.47957820
Ar 38.27359930 31.47513060 27.54859260
Ar 37.88844140 31.43261170 43.30589920
Ar 35.02994850 31.27424500 24.43106530
Ar 35.64135900 27.80812710 29.00152290
Ar 40.07607760 26.68723670 33.71371200
Ar 39.71085670 28.50468840 26.66715870
Ar 36.33120590 36.32684240 31.84761290
Ar 34.78687550 28.28182590 36.30076170
Ar 38.62487930 29.47225670 35.45187800
Kr 35.79851270 32.11058750 35.09419840
Ar 34.67666820 30.89758960 38.74050050
Ar 36.46763810 26.04599720 40.88042510
Ar 37.19039170 29.31391390 40.76161850
Ar 36.20861410 33.51886080 41.05361020
Ar 34.72345500 31.62322140 43.61519240
Ar 34.12513280 34.60148190 45.58133060
Ar 42.24772610 34.46599780 27.38620970
Ar 38.59679860 36.62648370 24.13424380
Ar 34.36970540 40.21614940 26.23774160
Ar 32.58014950 33.79479620 26.18620810
Ar 35.13966390 37.89578910 28.49885740
Ar 40.77862150 39.75317520 29.84324390
Ar 34.04399590 39.96212420 31.47681080
Ar 34.12406940 35.38260310 34.37276260
Ar 38.14594350 35.95346760 36.08136130
Ar 33.64488450 36.98838340 39.38190690
Ar 36.46685670 39.23376820 37.41200430
Ar 35.38882410 34.33799150 38.08052990
Ar 37.92762080 35.20303250 43.76145060
Ar 35.12274170 36.27305970 42.61765690
Ar 32.07280510 41.44870560 42.52897780
Ar 36.95437270 38.50795500 44.86989560
Ar 41.39793910 40.47390450 26.76736900
Ar 36.52616980 42.59111450 24.17430150
Ar 38.08820940 41.26554720 27.36317900
Kr 37.66381540 39.51692080 30.71425950
Ar 40.41762490 37.22163390 33.95135250
Ar 36.34134530 45.17616860 27.26994970
Ar 35.07596100 42.24015260 29.12462600
Kr 32.39115030 39.13000140 34.06459700
Ar 33.58519720 40.75268640 36.86773150
Ar 36.43200220 42.24398360 32.49322040
Ar 37.12487620 42.24520540 40.02767640
Ar 29.80260600 39.39430410 40.24098690
Ar 34.67250670 39.78713230 40.72095760
Ar 40.17205170 40.15281980 40.85517750
Ar 32.72908900 42.93222910 39.50610730
Ar 39.05925620 23.19884590 45.02984270
Ar 44.43919480 23.16621350 26.76724560
Ar 42.25518690 23.95280420 44.70864180
Ar 39.51622510 44.90585640 25.63033820
Ar 38.81826640 24.16101860 31.26135660
Ar 44.94972130 26.06088530 29.81505280
Ar 41.76163860 25.97619230 27.81978660
Ar 41.90503030 27.85151260 30.80595860
Ar 38.63958420 43.35428200 30.16952590
Ar 44.39652110 45.09985140 35.83985690
Ar 44.53159120 25.14820580 33.14867400
Ar 41.87628880 23.62074620 38.23242800
Ar 42.38512560 42.35435870 39.93063760
Ar 42.67076110 43.50192340 43.94054950
Ar 42.93637540 25.45693780 41.27147690
Ar 39.64392530 23.30229200 41.24628800
Ar 38.41416900 32.58287030 24.15281130
Ar 41.34396200 25.73368080 24.73460850
Ar 41.22655230 30.88631550 44.38324650
Ar 41.27047270 31.23969260 25.89040880
Kr 38.52872910 28.94918820 31.12522510
Ar 44.20064060 27.43440040 38.84885990
Ar 44.01624300 29.15935440 28.00288900
Ar 41.04836590 30.27523700 32.90798100
Ar 41.41882280 27.87102790 36.51113560
Ar 25.11606060 28.74961940 38.89569000
Ar 43.81848050 30.96943950 36.00249910
Ar 38.34156020 32.64432850 38.23733090
Ar 39.62731420 26.66907480 40.31391510
Ar 40.66138580 28.22690860 42.77900990
Ar 41.20290550 31.41145360 37.44702510
Ar 40.31999170 31.51563040 40.71229380
Ar 41.94141130 34.90625460 41.94052260
Ar 23.80466660 36.04140150 26.84704210
Ar 42.29550570 34.03056930 22.89382420
Ar 39.25761240 36.82120850 28.55108270
Ar 35.95405520 34.57275970 26.95274240
Ar 37.72974060 32.42382620 32.07297680
Ar 44.54488590 32.46164830 29.62176090
Ar 35.91124550 38.90646140 34.11267740
Kr 41.03295970 33.75647450 32.45367050
Ar 42.15991470 34.93129830 36.47942300
Ar 43.85763470 35.72639040 33.20920920
Ar 37.36274250 42.96821200 36.16104600
Ar 43.06271880 32.93556570 39.49794550
Ar 45.43905200 37.35453690 42.76501640
Ar 23.89198450 32.36625370 40.37403000
Ar 40.38216190 37.55556250 43.42838650
Ar 39.83794590 40.28395690 23.33579900
Ar 42.26150040 37.07406770 24.83330160
Ar 43.97488080 40.40472490 24.12879970
Ar 42.40583000 43.43158060 25.21352110
Ar 42.06657280 36.75483220 30.33294730
Ar 40.39318520 40.22752620 34.22811850
Ar 43.41138660 41.78443590 29.42748880
Ar 41.66944900 45.59754010 28.61019910
Ar 41.79976600 38.00146170 39.00788950
Ar 41.41632000 42.85926060 36.80650150
Ar 41.55617230 22.95782740 33.04471340
Ar 43.51673770 39.72225370 36.69006590
Ar 38.51376390 36.53508820 39.40639140
Ar 45.28381550 39.82811120 40.55363370
Kr 26.26223090 41.87094810 39.04013560
Ar 38.62582560 42.75413170 43.79861620
