2048
45.752304 45.752304 45.752304
Ar  0.5283400 45.2373792 22.6192051
Ar  5.1197901  3.1157102  1.4904197
Ar  0.6603415  3.6340002  0.5928913
Ar 26.5571924  0.4685987 23.9248855
Ar  0.0937992 23.7493133  3.9922849
Ar  8.9081222 23.0406936 12.9942895
Ar  4.0067231  4.5787406  4.8365063
Ar  3.3363994  1.9667957  7.8361700
Ar 18.1363757 16.0891003  6.4980896
Ar 45.2259262  3.2258131 12.7236035
Ar  4.6244987 22.6499120  7.8052296
Ar  2.0578880  5.3898877 12.2488566
Ar 24.2337601 18.6821114 11.5497133
Ar  3.8944428 44.4287599 19.1903532
Ar  6.1174124  2.5154683 19.4694778
Ar 24.2691318  3.9922560 22.4823621
Ar 17.8355309  5.6389671  3.5076901
Ar  0.3051511  8.3196206  4.2607270
Ar  0.0643471  8.9812185 45.4746094
Ar 21.1975458  8.9811503  0.6180684
Ar  0.3651475  3.7358966  6.0445980
Ar  2.4886382  8.7583491  6.5834222
Ar  7.5358839  9.4322114  3.1541877
Ar 20.0035571  5.4548135 10.5775052
Ar  6.1288635  7.4725369  9.7871009
Ar  3.3679251  7.1481261 15.0564217
Ar  7.6253541  9.7867041 12.6539638
Ar  2.6538053  8.4669354 10.8081955
Ar 45.3078664  4.3259038 21.0281719
Ar  1.3672599  9.2770213 20.7675926
Ar  5.7435516  8.8367148 18.1607687
Ar 21.0534505  6.0262892 20.3936311
Ar 20.0838027 12.4689873 21.4986194
Ar  1.9909796 11.8409361  8.8416188
Ar 19.6296272 13.6854014  0.1973918
Ar 21.1826044 15.1826922  4.9125487
Ar 20.3141247  8.0593878  7.4624748
Kr  6.2408257 10.6845021  7.9108671
Ar  3.6876776 12.0368415  4.6988605
Ar  0.1133216 14.4173602  9.8092327
Ar 45.0579056  9.0498017  9.7784998
Ar  5.4378895 11.5418119 11.1137463
Ar  3.0948847 17.3679351 10.6346296
Ar 21.6527225 15.8221254 11.7897613
Kr  0.0049781  8.7022518 14.1749013
Ar  5.4172524 15.3633813 22.4515904
Ar  5.7863028 18.2501789 18.2314278
Ar 22.2344032 20.6642558 23.2458309
Ar  0.0697217 14.8748533  2.0470804
Ar  4.9022490 17.8955543  0.9412831
Ar  4.1447452 24.2404114  3.1471287
Ar  1.5661392 17.6352260  3.4887345
Kr  0.9407379 14.2686927  6.1450289
Ar 24.0926930 15.5809606  9.0699750
Ar  2.5823799 20.6260531  4.5480860
Ar 21.1869350 20.8871086  9.5207380
Ar 20.9363693 17.2311985  9.0098890
Ar  4.4527184 17.8029386 14.4009232
Ar  2.1607624 17.8879412  7.3411105
Ar  3.2583222 16.7701009 20.6583667
Ar 19.8643679 14.6769724 16.2214005
Ar  2.6306899 21.6353118  1.0670237
Ar  4.7496137 21.4031059 17.7730116
Kr 44.0367777 22.7752310 20.5474516
Ar  5.8733819 19.2364047 21.9232034
Ar  7.6546967  1.3373528 43.1422024
Ar  9.3349248  2.6060736 19.8591192
Ar  2.3646470  6.5169602  2.2676534
Ar  9.1364158  2.4504940  6.5909192
Ar 13.0943961  0.1675199 10.0581056
Ar  8.8858090  3.2880824  2.7053525
Ar  5.0076338  4.2561539  9.9500932
Ar  4.9120747  1.1859758 11.3496205
Ar  7.7506828 19.8282181 11.7231556
Ar  8.9689749 19.8757698  8.5328502
Ar  3.7340559  1.9852962 15.1843940
Ar  3.2315005  2.8709005 21.8055380
Kr  9.8486450 21.5417704 20.6255152
Ar  6.8926315  3.6200988 16.0555086
Ar  1.4596780  6.1423434 18.8463625
Kr  7.2547668 11.1087982 22.7757280
Ar  9.6456572  5.8224002 23.9945114
Ar  8.5001913  8.4465799 21.2482398
Ar  2.7464958 10.8047682  1.5966054
Ar  4.2114301  8.7817078  3.7717941
Ar  8.1802646 23.9611337  9.6292426
Ar  9.7734140  6.6138485  3.4388931
Ar  9.1305082  6.3235349 11.1003029
Ar 12.7952582  6.3890498 11.0206796
Ar 11.4865563 20.7523549 13.6631448
Ar  9.3293591  5.2402639 14.3870292
Ar  9.0333479  7.4825473 17.8268073
Ar  4.3397961  5.5114782 17.6081827
Ar 12.6137628  5.9388865  2.4312804
Ar 11.0541766  5.9955323 20.4744522
Ar  4.4406483 11.9964774 20.5495808
Ar  6.6928333 11.6002063 45.3529123
Ar  8.8849289 14.1828238 44.9743458
Ar 10.3063418 15.2091243 19.6294241
Ar  6.7818661 13.1075948  4.0978138
Ar  9.7248194 10.8852918  5.5175416
Ar 12.8275083  9.5675940  8.2635070
Ar  7.5223132 18.7527643 44.5317774
Ar  5.2011681 14.3482193  8.5660231
Kr  9.6350399  9.4946297  9.9251645
Ar 11.2512328  9.2843818 13.1634799
Ar  8.7261318 13.1851182 10.2379983
Ar  3.8254094 11.5729133 15.1867189
Ar  8.6881487 11.9368418 15.5568620
Ar  7.7461577 12.6135844 19.4452447
Ar  7.9676996 15.2585081 14.2172653
Ar  1.3043507 14.2698795 17.5275172
Ar  4.2320715 14.0564846  1.4322372
Ar 11.4132618 18.3684940 22.2968469
Ar 11.2584969 24.3819656 23.2882829
Ar  5.8841164 20.4711294  2.4350197
Ar 10.0288593 15.0705350  4.0919517
Ar  7.9691476 15.7101155  6.3513036
Ar  7.4719952 16.4061968  2.5064414
Ar  4.2662854 16.2838695  5.3313873
Ar  6.2964658 14.8404483 11.7380913
Ar  4.4671617 21.0068402 13.7350990
Ar  5.7639824 18.4398633  8.1580196
Ar  2.7002444 20.7083777 10.4695869
Ar  7.7600962 15.7312075 17.7372536
Ar  8.5685199 16.9727323 22.3166994
Ar  9.1338514 20.0545606 15.9577178
Ar  1.0785380 21.0620195 18.2326908
Kr 12.8893120  1.1093722  1.9112983
Ar 15.1877085  3.8059128  1.8850626
Ar 14.7271131  1.4078384 23.1351459
Ar 11.8092951  3.3420500  4.1618551
Ar  9.8436967 20.2240017  3.6642631
Kr 12.6261069  3.4936495 14.4016419
Ar 11.8054587  7.9918490  5.2964037
Ar  7.4628121  5.7381301  6.1997012
Ar  8.6156509  1.4670063 13.5772683
Ar 14.2758157 23.5891523 15.2504807
Ar 16.8408510  3.4861055 16.6560673
Ar 12.7195616 23.7114105 12.2190273
Ar 11.7719847  0.7775540 18.3674000
Ar 12.3470863 19.5643225 19.1668955
Ar 10.7633270  3.9654795 17.3334087
Ar 10.8974520  1.6884315 22.9530533
Ar 13.2725097  3.2401822 20.4539558
Ar 15.5023926  8.3893957  3.8564846
Ar 15.6988529  5.5425950 22.5308502
Ar 12.1938454  7.8932387 45.1301838
Ar 11.2434875  4.8387683  7.7446161
Ar 15.4462755  1.6223611 12.9936031
Ar 14.0717595 10.9726361  0.6041809
Ar 15.9281408 13.3911688  8.8609675
Ar 11.7547139  7.0950693 15.8111995
Ar 15.0928446  6.8825007 14.0213458
Kr 15.2766429  8.8340958 11.1422159
Ar 14.2292234  9.7846993 17.7142714
Ar 15.3232749  0.3514339 20.0290220
Ar 15.4472628  5.8218362 18.3166612
Ar 18.6130165  7.6900393 18.7294703
Ar 15.6320607  8.5636209 20.6694794
Ar 11.3160801 11.2196995 20.9323458
Ar 22.0331035 11.9803034  2.6074830
Ar 13.6890520 15.9023898  2.2506590
Ar 10.9509649 17.7551767  0.7609960
Ar 10.5920341 11.0896661  1.1400467
Ar 14.6545389 15.1410685  5.7196982
Ar 17.9718911 12.0662633  6.1943667
Ar 11.2982825 12.6650372  8.0846132
Ar 12.9750714 11.8723105 11.0376244
Ar 16.6195324 13.6102051 12.4176748
Ar 11.9815621 12.3159255 17.0521583
Ar 15.9256224 15.2590171 14.8957368
Ar 14.3007294 12.2736883 14.2997598
Ar 15.8090705 11.6911019 21.8615496
Ar 13.2417400 15.1312993 23.1652479
Ar  9.1683811 18.2342155 19.0319104
Ar 13.6835345 17.9521578 25.3598861
Ar 16.4439864 18.4593961  4.1459533
Ar 13.1363922 19.7047239  4.5151788
Ar 15.9187399 21.1331242  6.3313914
Kr 15.0502142 17.7766468  7.5225826
Ar 19.5303908 13.9185375  8.6767409
Ar 12.1944670 20.0512298  7.4987848
Ar 11.6195874 16.2214467  7.4925326
Kr 10.3030807 16.5477324 11.4298094
Ar 10.8507439 13.0677426 13.7843160
Ar 12.2596625 19.8088353 10.6707546
Ar 13.4673404 18.9637149 16.2639018
Ar 11.1199187 16.9282547 16.6078241
Ar 15.6317833 17.8085703 19.4920233
Ar 19.7094147 15.9941316 19.6456782
Ar 11.3498279 22.5075098 17.2431118
Ar 16.4056046 42.6429553 21.3038401
Ar 23.7692292  0.2776796  2.3270323
Ar 19.4393902  0.9537856 19.8274880
Ar 15.6095346 22.7318885  3.0808805
Ar 14.8213850  1.9915663  5.5012046
Ar 25.6392772  4.8764236  1.6653181
Ar 17.1170039  3.7418013  7.6307675
Ar 14.0273766  3.2677867  8.9327563
Ar 16.6321260 19.8905575  9.9522301
Ar 23.2416252 21.7774376 12.9293384
Ar 18.5185062  2.2138689 10.2630703
Ar 18.0650988 45.3558017 13.3460636
Ar 22.6612738 19.0155255 14.9590748
Ar 19.0136500 21.4360269 21.6356502
Ar 21.8126806  3.4301232 18.7757022
Ar 16.8011423 45.5890026 16.8953206
Ar 15.6579876 13.8936967  0.0000445
Ar 20.9640958  0.8304839  0.6517470
Ar 20.0395375  3.9459317 22.9214650
Ar 19.8408620  9.2489016  3.5015745
Kr 14.6348715  6.7293109  7.3156049
Ar 22.8516162  6.1367812 13.3392165
Ar 21.7606481  3.3398674  6.6902360
Ar 16.1589873  4.8782215 11.2710267
Ar 19.6349137  6.1200581 14.6610329
Ar 43.5715233  6.3127153 12.6033597
Ar 21.2763104  8.9504469 14.0524412
Ar 17.4196640 10.9309967 16.4328860
Ar 19.9326089  1.0507984 15.9748279
Ar 18.1788434  4.3796516 20.2738777
Ar 18.0023875  8.9329550 13.5307532
Ar 22.6378934  6.5015689 16.7092857
Ar 17.7360717 12.9103518 19.2509044
Ar 45.4436039 11.6610435  4.2333736
Ar 17.8351677 10.8206978 45.6391569
Ar 16.9563162 12.4258769  2.8297043
Ar 14.5426511 11.7497365  5.2324821
Ar 17.1133787  9.0597065  7.4530400
Ar 22.8482983  6.4709219  4.9665340
Ar 13.4087453 15.1319542 10.3272197
Kr 18.7045198 10.8568542 10.4255171
Ar 19.4944725 11.7345159 13.6528655
Ar 22.4852544 11.5667418  9.8572822
Ar 13.8472893 17.3071365 12.7717995
Ar 20.8399385 11.4722373 17.1176279
Ar 21.4195797 16.4226079 23.0725335
Ar  1.8025314  9.8142177 17.6019299
Ar 16.4583832 14.9440292 22.0109816
Ar 16.7859111 20.0853380 44.1844572
Ar 16.1400814 17.1332162  0.2474608
Ar 20.3590526 17.4257238 45.5205827
Ar 18.7134993 21.4686719  1.6722721
Ar 22.0971567 11.6422044  6.2194804
Ar 17.9961355 16.6444574 10.0363503
Ar 18.0238501 15.6934111  2.9657702
Ar 19.3927223 20.2698395  4.9727021
Ar 18.7739102 16.6077225 13.4356697
Ar 15.1743891 20.4244319 13.5202858
Ar 17.3314976 44.0338092 10.3137478
Ar 20.3290733 19.9382191 12.8269545
Ar 14.1552407 13.0308386 19.4452881
Ar 21.6012804 19.1411759 18.5579094
Kr  0.8689613 17.3269194 16.1026063
Ar 16.9091223 18.8677110 22.1909407
Ar  1.3850658  1.0906792 43.9967324
Ar  3.0367609  0.6644460 26.6650579
Ar  2.9979161  6.4331993 22.1838438
Ar 22.5128169 43.2710746  0.9106677
Ar  0.3745800 22.5203106 28.1605837
Ar  4.3984566 22.6565206 36.6925195
Ar  3.2644707  4.0447834 28.7254867
Ar  0.7373333  1.7435494 34.8015188
Ar 21.1317744 19.2556960 32.7632866
Ar 43.9087729  0.1928368 37.4407261
Ar 45.1497091 22.9008850 34.8548560
Ar  2.4446467  5.7994052 36.0083593
Ar 21.5048136 22.3705671 41.0587309
Ar  2.3899373 44.5915787 40.3271849
Ar  2.1567580  1.6175133 37.7822904
Ar 19.0022314  3.3844122  0.1997963
Ar 21.2112130  2.0367050 25.3542998
Ar  3.6531444  5.8091438 25.4231147
Ar  3.4970643 10.9447763 23.4162068
Ar 21.6392141  5.2391876 26.1094202
Ar  0.3537848  4.1770841 27.1767246
Ar  0.3076742  6.9301553 29.4593842
Ar  9.0782051  9.0531377 28.2491362
Ar 22.8186418  7.1520363 34.2517443
Ar  5.2710753  6.8027227 34.3423983
Ar  8.0964305  6.2675804 36.5404940
Ar  6.2845656 10.9518058 34.9129769
Ar  2.8676452  9.2341458 35.1654955
Ar  0.1303715  1.4941334 40.9062412
Ar  1.5229951  9.7943620 41.8127373
Ar  4.8191859  7.4824518 38.0261022
Ar 20.1749255  6.5895990 44.5811888
Ar 23.2791148 11.7380862 43.3650855
Ar  4.3297197  9.3318216 26.9994077
Ar 22.0719179 12.0176758 24.7371348
Ar 22.8965021 18.6750189 26.0792256
Ar 18.9493602  8.2756385 28.8504425
Kr  3.2322548  9.3268148 30.5777528
Ar  3.5738397 16.5504556 27.3994796
Ar 43.8336459 12.8676207 32.1287685
Ar 45.7497224  9.4823380 33.5811001
Ar  1.8155423 12.0222849 32.3867975
Ar  4.3806139 14.4093173 33.4237945
Ar 21.5688506 14.5049689 37.1974253
Kr  0.6064928 13.0631077 38.2040499
Ar  3.8974938 10.6141754 43.8741424
Ar  3.5930246 16.3570313 41.1739037
Ar 21.7505219 18.3957034 42.0281926
Ar  1.2985504 16.5311749 23.9270560
Ar  6.8431159 18.9497787 25.3243431
Ar  5.7334466 21.7251688 24.1400225
Ar  1.3686033 19.0257512 28.7762730
Kr  2.2234204 15.4672949 30.5994559
Ar 21.0113645 14.7218413 33.7853097
Ar  3.0900334 20.7012153 26.3663968
Ar 21.8683219 23.3935872 32.0502268
Ar 26.2692595 22.2061781 36.1687948
Ar  4.2830273 13.1234209 36.8701378
Ar  2.7807817 19.2361381 34.7863553
Ar  2.0021328 14.6635078 44.0693960
Ar 24.7252784 13.2257260 39.5550271
Ar  1.8439950 19.6172908 21.9070834
Ar  3.0487907 22.8629083 40.0643215
Kr 45.3343022 20.5106463 44.7072907
Ar  2.5365129 18.8537055 44.3734822
Ar  6.0160028  3.5590155 23.3761373
Ar  7.9890214  2.0545466 39.9499502
Ar  5.7562539  6.0746950 20.9258502
Ar  7.9255943  0.5132888 28.8868810
Ar 14.7134230 43.3163615 32.1607703
Ar  6.1969465  3.6806936 27.3007058
Ar  4.2701647  2.8939120 31.9342414
Ar  7.3589026  2.4153779 35.1444115
Ar  5.4073373 20.9978862 33.7935011
Ar  7.6924494 21.5585966 27.5159869
Ar  5.4811732  2.6782645 38.1367399
Ar  5.1797359  4.8564902 44.0336083
Kr  6.8314720 22.7543789 44.4433165
Ar  5.6779082 45.1278200 37.0642681
Ar  1.4825896  4.7754141 42.8218601
Kr  5.2755157  8.1144933 45.7471142
Ar  9.3936922  5.9936969  0.0174726
Ar  8.3681170  8.7265549 44.2119879
Ar  6.3338147  7.4516739 25.2511420
Ar  5.1191752  6.8000306 29.1661776
Ar  6.3583008 24.8984193 34.8459242
Ar 11.7713300  7.2370695 28.6179532
Ar  9.3722427  5.5249822 33.5138454
Ar 12.3418388  6.0151255 31.8157711
Ar  9.0742700 21.6318861 36.1902103
Ar  9.9185195  3.5835982 37.7671848
Ar 11.2121485  6.6385459 38.3924852
Ar  6.9468119  5.8617808 40.2915023
Ar 12.8333772  3.4624898 25.3654177
Ar  9.3517556  4.7913617 42.1236017
Ar  4.3151760  8.0884864 41.6006291
Ar  9.8141544 13.6748679 22.5394018
Ar 12.4982332 12.2824589 24.5412958
Ar 10.9107998 14.0554225 40.5005371
Ar  8.4662558 12.8958762 25.5690940
Ar 10.3953465 12.7103699 28.2148323
Ar 11.2830246 10.1861557 30.8305954
Ar  8.5531260 16.2568191 25.4953427
Ar  2.2869649 12.5092982 28.9137843
Kr  7.9859109  7.9671708 31.7768692
Ar  8.4963093  9.7679722 36.9953162
Ar  8.9318428 12.3017942 32.3443504
Ar  5.6963791 10.5910038 38.9662106
Ar  8.7956411  9.0359594 40.5480558
Ar 10.4274051 11.4055036 42.8208747
Ar  9.2099673 14.2165920 35.0893206
Ar  2.5336270 12.9577993 41.1056929
Ar  4.7177401 13.7687584 25.5251486
Ar 10.2706956 16.5075361 43.0816896
Ar 11.3372000 20.0613304 42.9555107
Ar  9.5421814 21.3761850 24.6885318
Ar  6.2455711 14.3116008 28.3974274
Ar  7.5003729 15.6625826 31.1827430
Ar  7.0294190 18.5551454 29.4213955
Ar  4.8244213 18.0578393 31.9155241
Ar  6.2059713 12.1768288 30.7881506
Ar  5.2752655 19.9032106 38.7469330
Ar  8.3153105 20.7025800 31.9052333
Ar  1.5845590 15.0827742 34.9356058
Ar  7.5439704 12.4060666 41.5477215
Ar  5.0807971 15.2065471 44.2285603
Ar  4.9489494 19.9339497 42.2199262
Ar  1.3228872 20.8705748 37.6463439
Kr 11.7695961 44.3571504 21.4428475
Ar 14.8177617  0.8683729 27.6932650
Ar 16.0282451  0.7057365 45.0925301
Ar  9.8213363  2.1646161 26.5816157
Ar 10.6496386 19.2288854 27.2238094
Kr 13.3256635  1.6120460 32.0103507
Ar  8.6098756  5.3519226 29.4575780
Ar  9.2368696  2.5112795 31.7952746
Ar 12.2534995  3.4644338 35.0915165
Ar 12.2657772 21.6037396 37.9697334
Ar 15.1780108  0.0961271 35.1574489
Ar 11.3481920 21.8664897 30.0267578
Ar 11.3487941  0.7180172 38.1973887
Ar 10.4815968 22.9426711 41.0646678
Ar 14.6063264  5.0128302 38.8542200
Ar 10.5331136  2.4045432 44.9064015
Ar 13.3749091  4.3790641 44.5534803
Ar 15.1320954  5.7969265 27.0267795
Ar 16.8302887  4.5933872 43.9764220
Ar 12.2287313  8.4424650 23.0012850
Ar 12.2244338  3.4762468 29.3816674
Ar 16.4034155  2.9416637 34.7806262
Ar 17.2079035  2.9199992 25.2007667
Ar 14.9886180 12.6238997 30.7064578
Ar 11.8447335  6.8585836 35.0648159
Ar 15.6778012  6.1651557 34.2759244
Kr 13.6167455  9.1404613 33.1681568
Ar 11.4606429 10.6851659 38.4964635
Ar 12.5168862  4.0483433 41.2006563
Ar 14.0526265  7.5999581 37.1929726
Ar 15.1137514 11.5870036 43.2170841
Ar 12.5223919  7.2790528 41.8445805
Ar 12.0054743 13.5298821 44.4822927
Ar 18.2363176 12.5007966 25.0685817
Ar 15.7295970 14.3420427 25.7579352
Ar 12.2848334 15.1324239 26.4174141
Ar 10.1381216  9.4439686 25.1564220
Ar 14.1504555 15.7243410 28.9561026
Ar 20.3479150 17.1125103 30.0404056
Ar 11.1312109 16.9479589 30.1828545
Ar 10.4516685 10.6499691 34.4346518
Ar 13.9408430 14.6315994 36.5686121
Ar  8.5958225 16.5876394 39.0803215
Ar 16.3238519 16.2717209 38.3895431
Ar  8.5074472 12.9236116 38.1376192
Ar 20.7903260 11.0643224 39.0040628
Ar 14.1003913 13.2070967 39.5480691
Ar  6.9527003 16.7282823 41.6430035
Ar 14.0120792 17.1863403 41.4383678
Ar 17.4199611 21.2077407 29.1596826
Ar 13.3183708 21.2451353 23.2163459
Ar 19.2335911 15.5413054 27.4129134
Kr 14.7184086 17.4748000 33.1734820
Ar 17.2133154 15.2096469 30.4409908
Ar 12.0776804 22.2610299 26.2692873
Ar 13.8625843 19.9924717 28.8104861
Kr  9.3780775 17.4283453 35.5764236
Ar 12.7360444 18.5139214 35.8660371
Ar 11.6736220 19.1840924 32.6422149
Ar 14.4923877 20.8779048 41.5676001
Ar  5.8208822 14.7333510 39.2373781
Ar 12.0927194 16.4035894 38.4028726
Ar 17.4226008 18.6819804 41.5349530
Ar  8.3892801 20.2648120 41.1320607
Ar 16.6149269 42.8205456 44.0504314
Ar 23.7267387  0.0837659 25.9135696
Ar 20.8860656  1.7927769 42.8189332
Ar 15.8986796 23.2021951 25.8402044
Ar 18.1627046  2.2142747 28.9338625
Ar 22.3411260  2.7168656 28.6200287
Ar 20.1561533 44.1837910 26.7293972
Ar 19.5745556  4.1592088 32.5437250
Ar 17.9943966 18.6714431 31.8327257
Ar 22.0601795 20.7867635 36.4762366
Ar 25.6900128  2.3000805 33.5194451
Ar 17.1781087  1.2162000 41.1691332
Ar 18.1747897 22.9457560 41.7896870
Ar 20.6610087 21.2232061 44.1997524
Ar 20.5429004  0.4645699 39.5017553
Ar 14.1443180 45.4068694 42.6910697
Ar 15.1539126  8.7135430 24.6942195
Ar 18.1824292  0.2001614 22.4023163
Ar 16.8975643  7.6719985 42.5031634
Ar 18.5052438  6.5833990 25.7655440
Kr 16.1574120  4.6792565 31.1320458
Ar 21.6687152  5.2239289 38.6539463
Ar 20.0638545  5.3345268 29.2543107
Ar 19.2896060  8.4245307 33.0078785
Ar 18.5519278  2.1258827 37.4485263
Ar  2.7866119  5.5075064 40.0339188
Ar 20.4259310  7.8536695 36.6110751
Ar 15.3926962 11.4959485 35.7026548
Ar 18.4931067  4.4372960 40.8226638
Ar 16.4834300  7.3957408  0.5269400
Ar 17.8213908  8.0718795 38.5886086
Ar 14.4817390  9.3772072 40.0957841
Ar 20.2737667 15.4778227 41.5599190
Ar  1.3821643 13.1290538 24.9332290
Ar 18.6878878  7.6664135 22.4855024
Ar 16.5367573 10.7971150 28.4301057
Ar 13.0082442 10.4218651 27.8549440
Ar 14.9706624  7.9806736 30.0406926
Ar 22.2821721  8.5588810 30.8444811
Ar 12.4112106 14.4323824 32.9193636
Kr 19.7974589 11.7758269 30.0354730
Ar 17.3449847 11.2134185 32.4776264
Ar 21.7676459 10.9924896 33.6364678
Ar 12.6832648 22.6082886 34.3252235
Ar 18.9740787 10.9439073 35.4283714
Ar 23.3890536 15.9109349 44.2268018
Ar  2.4670676 10.0220797 38.5576648
Ar 16.8962915 15.4923729 42.4510634
Ar 16.6159091 17.8290524 28.1405504
Ar 18.4611507 17.4401219 24.6657797
Ar 18.6116342 20.5015541 25.7604942
Ar 20.0718445 23.4293594 27.4093374
Ar 22.0980671 13.3211613 27.7888907
Ar 17.9819311 17.0045100 34.9599880
Ar 20.4181331 19.7710421 28.0643214
Ar 18.4883404 22.6853170 32.7398330
Ar 18.1582425 13.9740208 37.2932274
Ar 16.0176690 20.5594479 38.0570725
Ar 21.0167562  0.2845788 31.4071670
Ar 19.1619878 18.7467990 38.1752510
Ar 17.6702306 12.5367194 40.5537874
Ar 22.9835225 16.2844612 39.6625586
Kr  5.7360443 17.0214446 36.0442791
Ar 13.5382212 18.8984289 45.1483822
Ar  3.8890359 24.8310887 22.4162640
Ar  4.4924875 25.4346320 44.9796637
Ar  1.4534534 27.2075836 44.5052548
Ar 24.1890700 25.6549096 20.0822356
Ar  2.8294510  1.6188280  4.4185476
Ar  5.1348180 43.7797350 15.2004894
Ar  1.3267443 26.4196247  2.0706253
Ar 45.3747732 23.1382320  8.4915279
Ar 18.0482182 41.5087085  7.8326626
Ar  5.0033658 24.2359019 11.6643346
Ar  1.4986829  0.3766486 13.1152551
Ar  2.3817520 24.9310110  9.7330138
Ar 22.7785978 40.9229442 13.2859003
Ar  2.2456787 23.6604239 19.7852101
Ar 44.9222519 25.4194345 17.3550434
Ar 23.0893015 28.4383567 22.2522506
Ar 18.2376618 26.8970552 45.6916086
Ar  3.7064844 29.0539171  2.5492454
Ar  0.7094235 31.4591028  0.6144353
Ar 19.9371274 31.2586177  0.6398388
Ar  0.0766460 29.2730780  3.7692284
Ar  2.8233647 30.3878188  7.0749945
Ar  7.8429236 34.0006270  5.3283636
Ar 19.8530452 30.5866887  9.6855566
Ar  4.7351680 28.1586381 11.7986103
Ar  5.3723234 28.6515134 14.9497487
Ar  5.5051018 31.5517584 12.7584561
Ar  1.9571705 29.7703985 13.4082124
Ar  1.7736414 27.7825165 21.0176048
Ar  4.4756231 29.5096180 22.5620125
Ar  5.1344046 30.2701111 18.0425436
Ar 18.9541300 30.4331012 19.5133382
Ar 24.7446125 31.9148580 20.8985798
Ar  0.2348391 32.9568005  5.3197047
Ar 22.9981878 34.4068904  0.7744164
Ar 19.5517924 38.8518680  6.4121032
Ar 16.5938050 31.0636248  8.5381475
Kr  5.5005726 33.1101928  8.9953916
Ar  2.5676567 39.7704951  7.2134355
Ar  0.3677922 35.1701343  8.8237662
Ar 45.5490369 31.8749463  8.6635791
Ar  2.8219052 33.3820819 11.6351360
Ar  2.4867164 39.7221752 10.6766090
Ar 24.1740323 38.0719869 11.6209901
Kr  0.8166875 34.0316162 14.5542685
Ar  3.8056939 36.4726674 21.6550613
Ar  1.9349773 39.9810653 18.4343512
Ar 21.6458469 39.2862670 18.3221268
Ar 44.7046742 38.3317244  1.9238058
Ar  0.1434847 40.2364286  4.8101160
Ar  7.1025344  0.4043657  4.0250039
Ar 44.9488289 44.2145592  4.2835345
Kr 45.1752583 42.4057962  7.4189835
Ar 16.4505398 38.1925240  6.7815032
Ar  5.7343461 45.0579893  8.8341893
Ar 20.0495544 44.9237485  8.7066458
Ar 24.4410739 43.3531193 11.3719175
Ar  4.4531521 38.4216079 16.9576620
Ar  2.4803255 43.9244493  6.8046524
Ar  3.0098632 41.6078789 24.1192133
Ar 22.2407750 35.7073240 20.5104065
Ar  6.2482877  0.2032794  0.8008021
Ar  6.0468296 41.7892061 18.2834250
Kr 43.1531399 42.5329700 21.3519845
Ar  4.4402559 45.1676529 23.4008264
Ar  7.6175530 24.0001862  1.9919743
Ar  6.3589312 22.9647106 20.7088492
Ar  7.1490662 27.4759662  1.5960891
Ar  6.6973892 22.8897679  5.3083954
Ar 13.4767676 23.1677682  7.8383231
Ar  7.2571578 26.3185101  4.6255591
Ar  2.9002063 26.9337666  5.0660081
Ar  7.0157438 25.8329595 13.9729156
Ar  7.0223021 40.6781927 15.0115302
Ar  7.6837328 43.6228636  5.8152106
Ar  4.2950723 24.5019035 17.3478723
Ar  2.6535980 27.8120398 16.8244744
Kr  8.4302493 44.8836017 20.3177446
Ar  7.7701055 23.5508356 17.2241528
Ar  5.7322490 27.3897060 19.6057668
Kr  6.7467790 34.3091074 22.6724369
Ar  8.8409981 27.0034829 21.8570225
Ar 10.3214368 31.7509335 22.3763683
Ar  6.2921519 31.9626834  2.3473872
Ar  6.1552808 29.5060875  6.4921864
Ar 10.9724144  3.2112005 11.3045990
Ar  8.1642338 29.6740455  4.0958940
Ar  8.0077329 29.6694673 10.3903735
Ar 12.7697044 30.0031039  7.9995935
Ar  8.3981037  0.8576673  9.5082152
Ar  9.0583336 29.6305939 13.6424995
Ar  7.5633879 33.4540065 16.0664157
Ar  8.5692078 27.2075070 16.7162827
Ar 10.5470745 26.2287941  2.1131491
Ar 10.7830370 29.2932049 19.3218924
Ar  8.0928290 31.1238849 19.7665637
Ar  6.7194568 35.8329290  1.8903067
Ar 13.6981029 39.2398269  1.8062231
Ar 11.9420668 36.7899271 21.6859854
Ar  3.7112635 33.9328633  6.0352257
Ar 10.7940695 37.2473980  6.3126979
Ar 10.2504105 35.3478015 10.3009197
Ar  8.3220336 38.8894699  3.2891031
Ar  3.6247072 36.1413549  9.3729813
Kr  8.9813467 32.5940742  8.8322343
Ar  9.8060771 33.2016174 13.1739779
Ar  7.0366072 36.4931468  8.3443131
Ar  4.4637856 34.0812735 15.1531964
Ar  5.6784693 33.7681927 19.3635412
Ar 12.9480282 32.5014590 18.8394780
Ar  7.1427271 34.9182444 12.1873884
Ar  2.6951709 31.4958113 20.1801750
Ar  3.6555516 33.5791408  0.9772834
Ar 11.4139520 40.4883821 21.9310032
Ar  7.9863928 45.6688994 24.9281501
Ar  4.3759989 39.9408426  0.9411887
Ar  3.1833247 36.7251417  1.4454060
Ar  4.3316155 37.2448923  5.3832599
Ar  3.8952893 43.3321928  3.7385585
Ar  5.1411752 41.4531485  8.1379814
Ar  5.9174008 39.5514879 11.7121927
Ar  6.7059289 37.4958895 14.6890873
Ar  8.4541016 41.8889940 11.1812269
Ar  6.9161798 44.4344202 12.7082581
Ar 10.4656873 34.6900550 18.6787868
Ar  7.5734992 38.4346733 22.9166612
Ar  7.2402384 38.7558927 18.7871281
Ar  1.1359300 41.9432650 21.4158885
Kr 12.3167498 22.0703581  1.6419086
Ar 13.8562522 26.3312048  4.0727954
Ar 18.2735040 25.3329354 24.4782041
Ar 10.6146975 23.6370637  4.5713779
Ar  9.9863298 45.1365478  2.1026038
Kr 10.4971742 26.8605168 10.0226245
Ar 10.8338018 32.0469817  5.8472377
Ar  6.7609534 26.5058430  8.1696640
Ar 10.2513788 26.5408295 13.7591875
Ar 13.6146276 45.1911850 15.9502340
Ar 15.8635985 25.0754682 10.4383155
Ar 10.7297261 44.4267344 11.9022693
Ar 14.0360468 28.0985215 18.5371908
Ar 10.3493017 41.9611020 18.9846426
Ar 16.9870482 26.4780651 16.1551510
Ar 10.6589128 25.1434128 18.9928605
Ar 15.8259012 30.7582015 17.7354504
Ar 14.7719958 32.1834199  6.1130007
Ar 18.8009881 32.7967233 22.2079680
Ar 14.1157283 32.5196524  2.8664595
Ar 10.3505181 26.8557204  5.9954813
Ar 17.9201506 26.4733575 13.0696039
Ar 16.1823182 27.8080500  2.5087796
Ar 13.8949214 36.4267869  4.4733497
Ar 12.6473089 30.5591582 11.8006448
Ar 14.5428785 27.3431437 14.1957754
Kr 15.6998686 34.0669863 11.0780640
Ar 11.0835281 31.0207703 16.3032189
Ar 14.2426424 25.8081323 23.6186210
Ar 18.4578754 29.3416508 15.6604924
Ar 16.0908333 33.5816292 19.2385949
Ar 14.5942337 30.1018135 21.3768538
Ar 14.0315070 36.0540687 24.6202066
Ar 20.7028854 33.6671901  3.3174554
Ar 17.6553610 39.4216241  0.2471973
Ar 10.4800559 42.3731546  4.5297112
Ar 11.4907715 36.7385019  1.7184690
Ar 13.7411890 39.4643954  5.7094991
Ar 16.8328687 41.2088972  4.7197349
Ar  8.4589611 40.6853287  6.9327774
Ar 12.2929491 36.8755942 13.3350793
Ar 16.5103329 38.2756783 13.4520222
Ar 14.0631986 35.9040060 17.6288332
Ar 13.8687956 39.8878765 17.5997399
Ar 13.5058817 34.0615475 13.9673416
Ar 17.3007294 35.9888524 25.7299750
Ar 16.3753050 36.1698408 21.7142370
Ar  6.8058378 42.0912461 22.1956805
Ar 15.3813639 38.5792981 27.0057693
Ar 20.1271384 44.5203214  3.4920512
Ar 13.9621921 43.4180212  1.2788532
Ar 13.9454588 43.2025542  5.0218469
Kr 13.8246929 37.3626564 10.2173541
Ar 17.7970611 38.0219846 10.3210972
Ar 12.0901172  0.2552864  5.9005644
Ar 10.9368413 43.8397453  8.4448208
Kr  9.6900112 38.8912695  9.4975900
Ar  9.8764065 38.7651348 14.8931805
Ar 12.3442731 40.9285912 10.7555211
Ar 13.8402293 43.4124003 18.9053460
Ar  4.3217684 39.8960747 20.9555405
Ar 10.8560725 38.3624343 18.2426025
Ar 17.0824558 38.5145838 17.0432383
Ar  8.5839019 44.8154228 16.7026016
Ar 16.5069854 23.9594957 21.6538585
Ar 22.3024190 23.0790108  3.0440645
Ar 21.1917475 25.5233195 21.5665206
Ar 18.0293041  1.1060101  2.7417718
Ar 15.2150711 27.9274586  7.0739986
Ar 20.7168854 24.6350918  6.1556320
Ar 16.7101263 24.8620436  6.3823061
Ar 18.2301445 26.8753869  9.1484835
Ar 14.4780880 43.7406597  8.0701029
Ar 21.5022979 45.2838480 12.1134674
Ar 21.3737203 24.0963729 10.5944466
Ar 17.6580384 22.3183510 12.1278326
Ar 15.2552041 42.2634897 15.3125910
Ar 19.3900385 43.3466541 19.1251871
Ar 18.7889117 23.4590898 16.1250889
Ar 17.4134255 19.1307982 16.5692912
Ar 17.6195906 33.2722009  1.4274207
Ar 18.8996888 25.2496530  2.9620839
Ar 18.8910389 28.1997710 22.3787684
Ar 17.2513546 29.9088641  4.7232905
Kr 15.1133589 28.5889271 10.7027501
Ar 21.4846427 29.6955759 14.3678538
Ar 20.6594020 28.0595652  7.3972373
Ar 18.3517895 30.8657697 12.6295551
Ar 22.9474687 27.6783465 10.2781237
Ar  2.2196842 26.4827971 13.3057676
Ar 23.6994359 32.4847262 14.7798324
Ar 14.9813114 30.4694219 14.5369198
Ar 14.7023150 23.9650650 18.6926542
Ar 17.4440189 26.6355924 19.7711581
Ar 18.7536595 35.2737350 12.9577273
Ar 19.8129705 33.2535098 16.4258177
Ar 18.6410453 35.9493634 19.3414393
Ar  1.1745452 36.6915680  4.5234352
Ar 16.8975040 36.5329688 44.8979490
Ar 16.9544544 37.8608138  3.4180058
Ar 17.0032550 34.7511269  4.3236447
Ar 12.6806879 34.3797082  8.4346386
Ar 19.2237767 32.4909808  6.5015058
Ar 13.6526237 39.5966108 14.3888055
Kr 18.9512881 34.7077943  9.5013757
Ar 20.5899423 38.4228455 12.7564130
Ar 21.9881767 34.9428016 12.3986918
Ar 11.9254487 42.4161167 15.9084450
Ar 20.7788218 36.4323436 16.3720006
Ar 23.4500615 36.9628265 23.9011848
Ar  0.2922411 30.9553279 16.2601137
Ar 19.6902547 35.9060342 23.2536232
Ar 17.4649043 43.1335979  1.7976567
Ar 20.0457187 37.0206574  3.0914894
Ar 20.1663042 40.7900316  2.7338051
Ar 21.2440182  3.2420787  3.4245372
Ar 16.1383120 34.7903112  7.5819240
Ar 15.4898868 41.1940982 10.0786968
Ar 20.8390956 42.1395009  6.2579236
Ar 17.3529524 44.6872291  6.2862284
Ar 19.5022099 39.8693736 15.6995605
Ar 18.5053199 41.3309268 12.8319856
Ar 18.6768470 21.9926611  8.1497354
Ar 21.5028579 41.1249900  9.5198576
Ar 17.0798548 35.2954032 15.8847691
Ar 20.5874030 43.2114795 15.5682382
Kr  3.4197557 40.8437652 14.3668916
Ar 15.1101284 39.6336759 21.4799414
Ar  3.1844910 22.3559614 43.5355536
Ar  2.7536071 27.3496553 24.4575837
Ar 43.6972062 31.1325484 19.5956392
Ar 24.5693490 23.2055540 45.4465517
Ar  0.2482788  2.1771003 31.3566965
Ar  4.0208687 45.7515739 33.7560087
Ar  4.5466575 24.0007967 27.6338656
Ar  1.0858250 23.7595918 31.6839642
Ar 16.8664709 42.8152804 35.1777446
Ar 43.6201071 25.1929714 37.3265096
Ar  4.7954863 45.7442339 29.7178786
Ar  2.0034450 26.6585426 34.0135865
Ar 20.3556241 42.8108676 37.9380445
Ar 43.1694918 22.6112123 43.0041816
Ar 45.2945967 23.0471509 40.1669453
Ar 21.5702847 24.6409284 44.4430417
Ar 21.4136827 30.6972643 24.8783818
Ar  1.9217816 29.1930117 28.8489029
Ar 45.0465803 28.9367439 25.4698019
Ar 19.3396511 34.3461466 30.3282010
Ar  0.9305045 26.1328520 27.1487247
Ar 45.3456920 27.5145096 31.0273686
Ar  8.5101925 32.3807853 27.7801563
Ar 24.2067313 30.4760672 32.6982716
Ar  2.7880397 29.5049007 32.6424586
Ar  5.2616022 28.0140559 34.7181968
Ar  3.9554813 31.9944176 34.1758000
Ar 45.3100315 30.6042299 33.4942737
Ar  1.9144931 26.3132811 41.2968755
Ar  3.0361175 31.7321082 41.7072700
Ar  3.8899463 33.0589445 37.8310979
Ar 20.1799689 29.9883491 41.6462514
Ar 22.4274712 32.5540043 43.4256532
Ar  2.6477154 34.0143831 27.9006506
Ar 23.1942504 33.7290651 25.8708937
Ar 21.5276879 38.7327437 30.5529671
Ar 17.4816192 30.7830738 30.8233132
Kr  5.2390357 32.4445972 30.4039410
Ar  4.1021396 37.2320285 25.0719343
Ar  0.5358577 36.9242046 26.7833537
Ar  0.8931465 31.9528512 30.6396731
Ar  3.5030783 35.2551382 32.3906175
Ar  3.6459922 38.5207131 32.5136772
Ar 22.3599802 36.0733771 35.2128373
Kr 45.2208821 34.1069580 32.6957185
Ar  1.1757645 34.4536753 42.5168503
Ar  4.5764594 35.4515640 40.7043228
Ar 21.8358149 40.5211668 40.8104044
Ar  1.1378113 38.4291821 23.3713619
Ar  5.1942155 40.1734873 26.5198039
Ar  4.6912285 43.7199417 26.9368307
Ar 44.7111020 40.0748944 26.1907512
Kr  2.1017414 40.2163796 27.9412041
Ar 19.7608921 39.4826526 34.2821364
Ar  1.9222053 43.6867727 29.0059892
Ar 24.1529451 45.6473976 29.4240669
Ar 22.6131690 41.8323794 35.0061897
Ar  0.2558666 38.7856369 41.3374808
Ar  2.2839163 42.2182597 32.5303865
Ar  1.7519852 38.4258957 44.5058716
Ar 24.0533380 38.2794940 41.0807457
Ar 45.6366391 43.2386360 24.8586581
Ar  4.2806937  2.0053387 41.4928198
Kr  2.8315863 44.8586077  0.8778824
Ar  5.0662929 41.1190407 43.7455050
Ar  7.8912609 23.9265991 23.8101569
Ar  8.2863366 27.0110596 43.4417813
Ar  6.1337261 26.6272445 24.6288578
Ar  5.0802387 21.5687708 30.4118502
Ar 14.9962884 21.9775940 31.7858343
Ar  4.5167512 27.6423967 27.3662815
Ar  4.6000718 25.4008210 31.9907607
Ar  4.2367734 26.5427294 37.8774638
Ar  6.3079991 41.1785923 39.3060322
Ar 10.9666136 45.6712556 29.9183089
Ar  1.3361379 25.1810877 37.3299137
Ar  5.6501947 25.9794187 41.5047649
Kr  6.1449542 44.3625054 41.5752989
Ar  7.4189604 23.4383595 38.7503041
Ar  5.0858740 29.3355877 45.0887057
Kr  6.9169261 33.1828332 44.4480284
Ar  9.3403029 29.1836878 45.4542808
Ar  9.8531931 32.8268509  2.0751911
Ar  3.2342224 34.2785934 24.5179739
Ar  4.9024778 31.5233086 25.7062526
Ar  8.4707123 45.1551227 34.9133314
Ar  7.6723804 29.9902074 23.7719516
Ar  8.0901329 30.5532176 33.8387192
Ar 12.5662202 27.9227520 33.1756265
Ar  8.9853963 43.9257980 38.7386951
Ar  9.5266877 26.1487582 38.0224573
Ar  7.8148721 29.0971382 37.2212283
Ar  4.6188037 29.4802857 39.6670472
Ar  8.4907301 29.2255724 27.1916733
Ar 11.9134710 28.8312329 43.2668029
Ar  6.7273417 32.6599875 40.9550348
Ar  9.9716553 34.8324905 23.9091292
Ar 13.1205264 36.6547272 28.7322815
Ar  9.9456033 34.7659450 44.8305261
Ar  6.4622531 35.3834234 27.7549199
Ar 10.4392962 35.9022028 30.6472685
Ar 11.3861352 33.5722811 28.5598751
Ar 11.8587041 38.1127917 25.8030399
Ar  3.9465454 37.6047344 29.5342604
Kr 10.4079426 31.5061069 31.4317688
Ar  8.6696090 32.4187798 36.5914539
Ar  7.4353233 34.0078684 33.8646615
Ar  1.1958127 37.3815702 34.6331360
Ar  6.8144633 35.8138452 38.1292632
Ar 10.3629021 32.8961035 39.5903546
Ar  6.7691697 38.7051025 36.0572096
Ar  1.2808616 35.1351776 39.2792894
Ar  8.3992111 37.4766836 26.3111068
Ar 10.5973675 40.8714059  1.0039041
Ar  7.0325487 42.4516326  0.8131223
Ar  7.9206148 41.3223929 25.1381773
Ar  7.2056747 39.2782704 29.1618643
Ar  6.8412217 37.3269103 32.0600136
Ar  9.5620990 43.0319269 28.8756977
Ar  5.0857350 41.8044071 29.6849121
Ar  4.5326259 35.8230723 35.5657900
Ar  6.7938882 40.6100018 32.5868777
Ar  7.9634439 43.8219244 31.8761770
Ar  4.2397144 40.4581563 35.0521240
Ar  7.7668338 35.7395302 42.1300292
Ar  5.1506816 36.1654212 44.5298674
Ar  6.7957462 38.7860889 41.7726967
Ar  1.0463659 41.8110501 43.0200496
Kr 11.4547088 28.7724196 24.0155758
Ar 10.9540105 27.0950154 27.7353834
Ar 14.5287554 25.7450611  0.3684671
Ar  7.6625785 25.3240252 27.2454110
Ar 11.1288600 43.0497156 24.7012794
Kr 13.3051170 25.0765675 37.5401716
Ar 11.4567311 30.7398778 26.7272906
Ar  5.3727753 28.6561644 30.2960166
Ar 12.3381828 25.0235425 31.1829685
Ar 15.0814148  1.3128643 38.0976361
Ar 18.4195372 22.7724073 36.7892394
Ar 11.9015879 44.8205482 33.7736618
Ar 10.3160318 24.8080942 34.4232501
Ar 11.1517457 43.4960289 44.6430327
Ar 11.2261914 26.0315322 41.5447750
Ar 10.6494399 23.9018126 44.8676315
Ar 11.7876457 29.5532086  2.6565077
Ar 14.9268002 30.3924767 27.2248265
Ar 13.9375210 31.1716200 45.5231969
Ar 16.5736640 28.4944783 24.5099813
Ar  8.3096751 24.5410634 30.4452665
Ar 15.0725690 25.5271429 34.3888561
Ar 15.4786773 26.4786329 27.1125501
Ar 13.2629906 39.8896389 33.0668226
Ar  8.1832625 26.7937339 32.5618115
Ar 11.3671987 29.4011186 35.8204894
Kr 12.0770928 32.4651685 34.5875048
Ar  8.9068691 29.7497919 40.6802673
Ar 15.9964800 26.6318198 42.7487024
Ar 13.4987674 28.1318298 39.7403973
Ar 13.2122529 31.0097461 41.6991443
Ar 10.3868070 31.8294606 43.3973713
Ar 13.7680090 35.0821286 45.0738596
Ar 20.2100866 36.0881706 26.8474000
Ar 18.6670020 39.0544550 24.9413019
Ar 10.8842235 39.4231569 28.9743974
Ar 12.7132297 32.7633637 24.3553498
Ar  9.5445277 39.2285213 33.3590445
Ar 18.3971874 42.0165995 31.3215651
Ar 11.4972975 41.9939979 31.2736940
Ar  9.9904208 35.6077271 34.4274176
Ar 14.3679844 36.3950060 35.7411380
Ar 11.4911613 39.5182554 40.6700516
Ar 14.8418077 40.7927012 39.3400796
Ar 11.5587897 35.5522354 38.3851912
Ar 15.9394169 32.5648455 41.1763828
Ar 12.2645459 35.2355782 41.8235178
Ar  8.2852814 38.3790250  0.0189865
Ar 11.6379524 38.1168052 43.9023056
Ar 20.3440625 40.9669966 28.3077399
Ar 14.1910604 40.4431049 24.5423162
Ar 17.3751961 42.2719467 26.7224137
Kr 15.3584746 40.2839829 30.3766084
Ar 16.5993538 38.4982342 33.0734940
Ar 11.7995488 45.3865034 26.9526062
Ar 13.0382055 41.7887093 28.0603835
Kr  9.6784576 41.9836887 35.3691571
Ar  9.7425319 40.4482417 38.2330778
Ar 13.1123471 41.4872585 36.2197568
Ar 14.0385510 40.9435094 43.3359792
Ar  4.2286424 37.6497153 38.1461226
Ar  9.2733009 41.9289418 42.2211685
Ar 16.0558619 37.5054968 41.7024817
Ar 10.1666799 45.3147235 42.1943861
Ar 14.2073116 22.8798290 44.4393075
Ar 23.0919695 21.6100728 29.3239405
Ar 18.1900969 23.7703744 44.9313701
Ar 16.4292531 44.7673778 25.0634339
Ar 14.2227860 23.5417694 28.6580933
Ar 22.6323096 25.4271691 28.8007552
Ar 18.5892728 25.2537625 29.8384400
Ar 17.6161376 28.9094565 28.0321332
Ar 16.3329613  0.8136406 32.0560753
Ar 19.7448783  0.4659565 34.8046796
Ar 18.5203444 25.8045288 34.4368282
Ar 21.0023290 24.3088986 38.4027125
Ar 20.8520492 44.0176661 43.0065231
Ar 20.2786452 41.0660369 44.9853196
Ar 19.9785050 26.7112517 41.3648569
Ar 14.2909587 24.4267765 41.1031671
Ar 16.3879099 32.5350961 25.0838224
Ar 19.7678162 27.8279553 26.1185931
Ar 18.7448465 32.5891688 43.2908714
Ar 19.2663079 31.8278874 27.5011775
Kr 15.1060851 27.2570019 30.6738237
Ar 16.7326672 29.2003925 40.8904745
Ar 22.9527293 28.7426962 27.4654661
Ar 15.7623765 29.2820784 33.4682823
Ar 18.8086999 27.8099485 31.2570518
Ar 45.1345420 28.2363254 38.5547194
Ar 22.3456803 29.4858983 36.6297552
Ar 13.2058264 32.0090453 38.1995540
Ar 17.6491179 25.8830454 38.6563909
Ar 16.7152392 30.3112251 44.2838523
Ar 16.2715755 29.4249517 37.3697353
Ar 16.6457820 32.8184454 37.2595247
Ar 20.9976239 35.8020042 42.2146612
Ar  0.0099204 30.9147432 22.4437027
Ar 21.5472517 31.2981116 21.4507685
Ar 18.2688966 38.2627104 29.0532154
Ar 15.7690628 33.3644768 28.9122395
Ar 13.9968743 31.3645262 30.9378539
Ar 20.8980693 30.9781118 32.3645793
Ar 11.8597993 38.6211884 36.4163750
Kr 14.0532434 35.6424155 31.9466543
Ar 18.6682712 29.8007150 34.7302983
Ar 16.1384024 32.5969529 33.7736763
Ar 12.6040849 43.4284423 39.7815768
Ar 22.2274500 31.8759575 39.7786890
Ar 24.5249510 40.7904459 45.4321705
Ar 45.2742650 31.6174024 39.5163671
Ar 20.9654662 37.8542911 44.7845410
Ar 18.4361421 39.2234767 20.1198603
Ar 22.7624319 38.3348225 26.7154526
Ar 21.2488193 39.4227582 22.2464702
Ar 19.3594152 42.3950687 23.2629071
Ar 19.8043894 35.9780688 33.0002294
Ar 17.3372665 39.0926178 37.5725634
Ar 21.9959095 42.3422244 30.7159974
Ar 17.3477027 44.9151791 29.2309799
Ar 19.7170243 33.9472160 39.0279737
Ar 16.1773962 43.4522378 40.6264471
Ar 15.5109524 20.2449585 34.8125074
Ar 19.2056281 37.3085318 39.9048024
Ar 16.3707734 35.4766518 38.7527528
Ar 21.1473275 39.4076892 37.2733612
Kr  3.5854053 39.8343888 40.7983178
Ar 18.9152169 39.3546191 42.5874692
Ar 27.5726609  1.3173205 16.7420969
Ar 28.0888380  0.2991988 43.8249832
Ar 24.8910556  8.1710075 45.6493578
Ar  0.9593133  2.1345623 24.1521810
Ar 23.8114840 22.2333221  7.5697779
Ar 29.2535552 20.9614537 11.7873919
Ar 28.2844574  3.4435004  5.1476685
Ar 25.0809892  2.6371520  5.1764019
Ar 40.9558396 21.5503908  6.5936180
Ar 20.8513296  2.8683412 12.5817169
Ar 26.6166086 20.8794940  9.5056560
Ar 23.4207628  3.9692891  9.9857534
Ar  0.7408938 19.1109119 13.0339728
Ar 22.3498556 45.7363291 19.0492707
Ar 22.5516504  3.2922506 15.2645069
Ar 41.6981593  4.3178081 21.3424188
Ar 44.7987914  6.3980821  1.4154757
Ar 28.9003699  3.3714431  0.5163744
Ar 26.4856759 10.7039732 44.1527486
Ar 43.3040692  9.6013765  3.2682459
Ar 24.9611677  1.7335071 44.7785668
Ar 26.1502119  6.8576720  5.7790366
Ar 32.2028736 11.0664402  4.8798452
Ar  0.7722447  5.5325066  8.9605774
Ar 30.1989712  4.3914079  9.2175164
Ar 27.4340235  5.0521295 11.5901764
Ar 30.2933914  9.2204362 11.4578401
Ar 24.8605296  9.4728807 12.9688764
Ar 24.3508176  7.2190440 21.1488494
Ar 21.8847209  8.5311552 24.2999020
Ar 27.7726893  7.6354864 13.5891711
Ar 43.9462958  8.1573722 22.2246896
Ar 44.3257113 11.1115770 19.6910344
Ar 27.0871323  7.8069603  2.1302378
Ar  0.2458214 12.4922636 45.4591109
Ar 43.4194633 14.2051714  4.5923616
Ar 39.3605842  8.5408467  5.3780332
Kr 27.4164687  8.5520910  9.9747989
Ar 25.0526847 13.2049186  5.1723626
Ar 24.9275523 10.6227607  7.1360394
Ar 24.0316214  8.1343808  9.7398798
Ar 25.5803161 12.5457280 11.0124705
Ar 25.4096795 15.3071699 13.9209855
Ar  2.6222711 13.1729478 12.3835489
Kr 23.1374491 12.6009921 13.3563092
Ar 23.8245882 13.3185063 22.2987301
Ar 27.5322071 13.3905291 20.0023718
Ar 44.7335139 17.9433281 19.2767983
Ar 23.4270096 16.0846698  2.0201966
Ar 25.1748678 19.1999968  2.5561394
Ar 32.5958386 22.4494565  1.5966874
Ar 21.9625899 19.8584004  2.5396426
Kr 23.8365598 18.1252953  6.7122502
Ar 45.7187617 15.9776281 13.0684596
Ar 29.1620509 21.9782045  2.3385906
Ar 45.5241266 22.7248909 12.0574596
Ar 45.0063531 20.0436910  9.3130784
Ar 23.7791510 16.5922682 16.9828576
Ar 27.3782503 17.5811822  9.6829023
Ar 22.7888533 13.6296688 18.8763793
Ar 44.8544690 12.8884790 14.8634109
Ar 27.2149735 20.5022878 45.6947853
Ar 25.7896965 23.3198055 14.7846723
Kr 24.3248001 23.3957303 22.4446942
Ar 25.9968425 18.3752076 19.4292159
Ar 31.8332012 44.6182695 44.5731489
Ar 31.2859286  3.9289824 18.8142636
Ar 31.9826412  4.3210802  0.3616791
Ar 27.9304546  0.5248803  8.6419475
Ar 37.7568249  2.6921329  7.6086307
Ar 31.0024019  2.3960489  3.6531609
Ar 26.9596302  4.0279925  8.1525542
Ar 30.0806158  2.2973642 11.7670517
Ar 28.8711217 17.2123807 12.2255477
Ar 32.3133506 22.3265768  5.5162560
Ar 24.0261828  2.0382279 12.3930450
Ar 25.1211677  2.8973514 18.5230625
Kr 29.6250330 23.5652345 19.0070697
Ar 31.0307759  3.9952517 15.5682112
Ar 27.9021763  5.1171798 18.0239473
Kr 27.5154275  9.2510690 20.5930955
Ar 31.4100222  3.7144260 23.2904379
Ar 30.7966793 12.3078312 24.4728620
Ar 30.2091186 10.0002246  2.1741320
Ar 29.4941595  6.6079212  5.2467674
Ar 33.4493666 23.3820403 12.5922300
Ar 32.9098643  6.7337994  3.7782799
Ar 30.6637486  6.0080870 11.8842654
Ar 34.6585608  4.3928660  7.2516452
Ar 32.3274725 21.9887347 17.1798444
Ar 35.8646248  3.6829291 18.0427113
Ar 30.0732727  7.1896155 16.0821606
Ar 25.4974486  4.5593774 14.6101470
Ar 37.5041839  2.0015641 45.2168590
Ar 33.0982438  6.8041646 17.8902044
Ar 28.1677570  9.6504400 16.9631433
Ar 28.8095656 13.3231233  0.6952195
Ar 34.7908850 13.5717849  2.9489111
Ar 31.2188150 17.5202964 19.5029945
Ar 29.1411396 10.0648915  7.0681391
Ar 29.7603058 13.1261090  4.8997368
Ar 34.3568152 10.5279289  7.7286319
Ar 32.3146974 15.7033560  2.1962890
Ar 26.8477083 13.0052572  7.9299946
Kr 31.7817931  7.6716511  7.9959732
Ar 33.1099429 10.0386931 15.8836674
Ar 31.7018090 12.7675130  8.2741396
Ar 26.5948579 12.7621728 16.6706942
Ar 30.3417177 10.7929444 14.3124987
Ar 31.1218282 10.3255486 19.0779473
Ar 32.4550634 13.2262104 13.5758115
Ar 24.2737202 10.6685247 20.1951771
Ar 27.0282722 11.1017587  2.5258622
Ar 34.3149752 20.2172527 21.0353259
Ar 31.4256052 22.4837653 21.6049652
Ar 29.7351666 17.5847418  4.0941054
Ar 26.6331061 15.7563658  2.9633857
Ar 30.7377629 15.9664920  6.8945150
Ar 34.1605600 17.5075078  5.1063386
Ar 27.9529578 20.0407648  5.9484062
Ar 29.5031240 14.0898071 10.5854306
Ar 28.6860379 13.7267541 14.2665896
Ar 29.1718133 23.1700879  8.2268593
Ar 26.1880300 19.8491337 13.7561390
Ar 29.3275808 15.0604484 22.6426921
Ar 27.8481426 13.7538613 25.3861243
Ar 29.1086991 21.1097835 16.1659086
Ar 24.7319686 20.4768979 17.2435733
Kr 34.4255061 45.1159541  1.0255117
Ar 36.7569126  1.4136891  3.0518801
Ar 38.1557730  1.8114003 20.5738530
Ar 33.4664324  0.0482472  5.4361257
Ar 32.4142802 19.3496824  1.3512509
Kr 37.6669562  4.2676772 11.1564016
Ar 35.8361908  7.9033790  5.7884140
Ar 30.5797484  1.6960699  7.2972972
Ar 34.3104783  4.7121061 11.4653428
Ar 36.9544607 23.2485652 13.4581283
Ar 40.3972626 45.1928794 14.7581483
Ar 36.7870718 26.2504705 10.3009914
Ar 33.1673733  1.3362163 17.3855108
Ar 35.3476093 22.2201044 18.8153087
Ar 37.8709077  1.1717431 13.9050481
Ar 32.1402651  1.0312533 21.4654845
Ar 34.4804611  3.3834113 20.9993057
Ar 37.6944977  5.7843793  3.9391777
Ar 39.4234291  7.6965927 20.9822173
Ar 36.8542017  8.1186584  0.6268460
Ar 35.0087961  4.1757330  4.0512695
Ar 42.1589337  0.1858444 11.3792722
Ar 38.9104591  4.7412565  0.4790340
Ar 35.4982692 13.8133564  9.1111971
Ar 34.9012418  6.5756996 14.7117329
Ar 37.5504865  4.4322046 15.4257877
Kr 35.2316032  7.6160781  9.6909569
Ar 37.4260189  8.8169471 15.6257583
Ar 37.7470763  0.9398214 17.4177317
Ar 39.3156556  4.8609359 18.4549293
Ar 36.0444156  7.3676347 19.4708319
Ar 32.5541657  7.0801601 22.2001277
Ar 31.7093777 13.9782689 19.7692172
Ar 40.3759695 11.6100495  4.1696132
Ar 38.8555206 13.9809140  1.5098605
Ar 38.1541739 15.4300780  6.2209119
Ar 34.4091850  9.6664593  3.4453157
Ar 33.9614707 14.4455422  6.1967454
Ar 38.2054959 18.6295844  8.2336727
Ar 31.0317266 19.5713385  8.3024130
Ar 34.4425642 10.8374790 11.4593958
Ar 39.1132709 12.3359004 10.3094708
Ar 33.4161155 13.6523397 16.8586131
Ar 39.1504878 17.6482893 13.7084156
Ar 38.1710916 11.8673254 13.8872418
Ar 37.5546327 11.0695342 21.5346444
Ar 35.0289096 13.8603045 20.6127878
Ar 28.9840276 20.0906240 19.5785023
Ar 40.4449050 15.7011273 21.1987486
Ar 41.6227563 17.9341476  5.3003262
Ar 38.6219425 19.1722901  3.8837975
Ar 36.4409214 22.0223226  7.2935248
Kr 34.6523641 19.2587850  8.1319196
Ar 39.4662920 15.8091110 10.0360712
Ar 37.9077729 23.3114474  4.3017310
Ar 35.4121743 20.6731959  4.3200151
Kr 32.2945319 16.4869028 10.9800569
Ar 35.0946317 15.6195493 13.6889706
Ar 32.8295852 19.8237785 12.9152644
Ar 35.7557338 17.9948463 16.6710949
Ar 30.3728353 14.7424928 17.0948307
Ar 34.7462195 17.1902125 19.5998561
Ar 36.8746344 14.3753039 15.9683659
Ar 32.1672428 16.9444385 14.6811511
Ar 35.9560598 45.1242372 20.7892033
Ar 43.1811535  2.0165072  4.1154562
Ar 43.1018549  1.3900958 21.9419481
Ar 41.6898873 20.9961951  3.4554503
Ar 39.5112866  2.4449396  4.6517224
Ar 41.9378464  2.4469764  7.4080965
Ar 41.7623082  5.0964066  4.4448369
Ar 43.1827848  4.8016721  9.7741121
Ar 38.7212862 22.8928520 10.3619374
Ar 42.1834267 22.6966599 11.3529470
Ar  0.3704839  1.2689285  9.8575879
Ar 43.6925789  0.6291221 15.1706536
Ar 42.6942029 20.3782719 13.8149281
Ar 39.1153399 17.6866410 17.5980514
Ar 44.5003470  0.1045282 19.0915150
Ar 40.7060856  1.7764920 18.1320695
Ar 37.9829213 10.0802695  2.6891604
Ar 41.3201006  0.6891113  1.4977258
Ar 40.8942813 10.0262269 22.5954670
Ar 41.2621619  7.8486884  1.0576831
Kr 39.2276957  5.9923365  8.4827076
Ar  1.9596332  2.0954140 18.0248929
Ar 43.6937716  6.5013262  6.9139819
Ar 40.1897279  6.7308743 12.6576457
Ar 41.6375666  3.1947595 12.4859365
Ar 25.7106895  7.3287891 16.4633693
Ar  0.1269417  5.5338650 15.9799547
Ar 37.4402610  8.7819581 11.8327786
Ar 41.1955305  4.0644391 15.6101390
Ar 42.4694473  5.7986732 18.5327193
Ar 40.7631872  7.8441171 15.4943091
Ar 40.6417429 10.4512373 18.8567859
Ar 41.8084423 14.4215872 17.5753502
Ar 23.7250537  9.1270617  3.1803379
Ar 43.0448055 10.6101423 45.1697638
Ar 40.6514360 12.9678689  7.2808496
Ar 36.9453326 11.9567457  5.2450652
Ar 37.7966601  9.9954592  8.2827808
Ar 43.4211382 10.8094896  7.2125192
Ar 35.9821886 17.4853531 11.1888812
Kr 41.1333174  9.2399026  9.1382695
Ar 42.5624260 10.3689641 12.4577748
Ar 42.4124897 13.4554584 10.5489612
Ar 36.6258458 19.8635739 13.6194271
Ar 43.5148389  8.6882408 17.2659521
Ar 45.5865545 15.0625386 20.6137715
Ar 23.7877588 10.2401574 16.3407803
Ar 41.6360845 13.1763979 22.3602275
Ar 41.1406453 16.7843623  1.9403192
Ar 44.8501440 17.4268542 45.4782979
Ar 44.0459269 18.2270082  3.0068924
Ar 43.6041516 23.0395152  1.0636251
Ar 44.1536249 16.4289508  8.0738910
Ar 41.3542222 19.9178139  9.9135481
Ar 44.0300816 20.2330677  6.0634757
Ar 41.0497843 24.1254585  4.4088894
Ar 41.4842570 12.1204090 15.0582754
Ar 39.4076050 21.5288908 14.7284376
Ar 43.7562016 43.0448878 10.3843590
Ar 42.1913171 16.0945653 12.7067486
Ar 37.4570717 11.8518261 18.0915019
Ar 42.2262537 18.1213069 16.1358250
Kr 27.2353913 16.4392706 16.3580949
Ar 38.3395352 19.0725387 21.4312482
Ar 28.4074379 43.1777282 41.8463319
Ar 26.8237675 45.5097095 27.2021821
Ar 26.0225600  6.5432505 24.8373346
Ar 44.5121669  0.2154229  0.4678508
Ar 27.6366975 23.7927995 25.7173817
Ar 27.4955876 22.1651560 31.6986356
Ar 29.3648797  4.6939506 27.3061145
Ar 23.7767266  5.3624595 30.7103986
Ar 41.8667213 19.4763291 32.6821481
Ar 22.7142969  3.6727265 34.0461420
Ar 27.1939579 26.0680172 32.6946203
Ar 26.7633079  5.5272791 32.5413781
Ar 42.8585259 18.2155449 38.8815161
Ar 23.8250647 45.6133661 41.2803637
Ar 23.9056598  3.5833515 41.7046089
Ar 42.4659279  4.5363703 45.3249360
Ar 43.4313378  4.7698331 24.3809808
Ar 28.1133276  3.8394224 24.4558108
Ar 25.4886819 11.5086842 25.3801940
Ar  1.0199696  7.6920118 24.2888844
Ar 24.6204265  3.6753013 25.7678322
Ar 25.9985993  6.6253198 28.1177305
Ar 31.4771996  9.4779019 25.6752741
Ar  1.5454198  5.9153741 32.8049335
Ar 27.9332872  8.6709130 31.2154056
Ar 28.5987491  6.3134846 38.0926069
Ar 28.0322016  8.2872052 34.4152682
Ar 25.6303171  4.8658361 35.6141130
Ar 23.4604242  5.0739960 45.0431268
Ar 22.6175674  8.4111564 42.9985581
Ar 26.2543628 10.4418986 39.0748575
Ar 45.2406744  6.7442615 40.4107241
Ar 44.0998538 11.5619471 41.7853757
Ar 26.3278202  9.9152290 28.3203889
Ar  0.0160261 12.1618344 22.2642490
Ar 45.3930904 16.1547633 27.0101134
Ar 39.6065239  8.0557008 27.9950875
Kr 28.7377553 12.0898771 32.1739392
Ar 26.3817060 13.1330390 28.5163433
Ar 23.2966989 12.6389686 30.7490125
Ar 25.1405298 10.2597333 33.0339626
Ar 24.3036587 13.5287942 34.2976527
Ar 23.9301174 18.2099830 35.9969936
Ar 44.3413411 12.2400509 35.3451713
Kr 23.5665025 10.0204794 36.8549776
Ar 25.7239752 13.8885253  0.0660761
Ar 25.7459081 15.5118518 41.7130650
Ar  1.4340808 20.0599836 41.3061639
Ar 25.1603815 17.8537251 23.0240858
Ar 28.4337788 18.4441413 22.1484501
Ar 30.7771633 22.1280955 25.2874298
Ar 22.7761304 22.8900844 25.9822185
Kr 24.1472535 17.8108087 29.4319653
Ar 45.3066754 17.2279365 32.9374068
Ar 26.7644715 21.1085044 27.9764723
Ar  0.9280666 20.3491018 32.5584439
Ar 44.7535893 19.5232975 35.7535920
Ar 25.9855450 15.5452426 37.3275567
Ar 24.1838569 20.3664434 32.5427937
Ar 26.3809928 17.1746386 44.7772795
Ar 45.2716150 15.0353863 41.1533712
Ar 25.1031397 20.8170136 25.3280998
Ar 27.6569878 22.6924184 39.5352223
Kr 23.6616060 19.3642894 44.9462668
Ar 28.8390105 19.4306273 42.6301242
Ar 28.0498265  2.6266904 21.3290842
Ar 30.3501795  2.5124980 42.5869699
Ar 28.8714422  6.1431094 21.6799656
Ar 29.0629450  0.3494268 30.5226756
Ar 34.2303793 45.5526895 33.2362103
Ar 30.8055599  1.5978133 26.8586946
Ar 32.5896604  1.7471806 30.9777488
Ar 28.6611602  2.2637670 36.6693322
Ar 29.0767838 21.4623382 34.7341006
Ar 32.0722509 21.0066682 32.9275971
Ar 25.5712973  2.9290448 38.8791879
Ar 26.9407466  3.9063208 42.8335965
Kr 31.1616862 22.1031656 41.7738913
Ar 28.5475606 45.6108779 39.9222046
Ar 27.1103517  7.1809544 41.9586094
Kr 29.8793468  6.9510712 44.2942019
Ar 35.2483632  4.4030889  0.1497397
Ar 32.3317794  7.9346493  0.6312006
Ar 28.2209696  9.2827983 24.3435986
Ar 29.2953719  8.4738389 28.0822957
Ar 34.7232674 24.7819081 32.1716991
Ar 30.1713230  6.6984115 24.7041379
Ar 30.4334412  4.9443944 35.0438420
Ar 34.4686846  7.7997607 29.9955536
Ar 34.0070995 24.4039038 36.3636528
Ar 30.5556295  9.5227136 38.0006837
Ar 32.5477428 11.5183423 40.3830403
Ar 28.6712688  3.2881819 39.7097562
Ar 34.1422062  2.7063160 25.4256749
Ar 33.6027670  4.1778438 42.3245846
Ar 30.3380904  6.4144169 40.9391888
Ar 32.8480988 14.3053334 23.1841275
Ar 37.3498214 14.9037270 25.9212985
Ar 30.6181990 16.7895307 45.3636003
Ar 29.7645037 12.0547516 28.7104762
Ar 32.5697170 11.3988105 31.1411380
Ar 34.3653637 10.9365525 28.3236933
Ar 31.7990279 18.0569210 23.7371195
Ar 24.2072228 16.7071128 32.6630633
Kr 30.9664107  7.0759780 31.9201133
Ar 31.1117105 10.4897567 34.3173489
Ar 31.2113824 14.2167501 34.3823235
Ar 27.9168197 11.7393392 35.7115360
Ar 31.4381723 14.4849865 42.7295018
Ar 34.5612986 12.7154544 43.1704630
Ar 30.9281922 13.2784389 37.7674908
Ar 28.9524400 12.0747299 40.3355219
Ar 24.1144464 15.4894869 25.4383728
Ar 36.3535961 19.4338644 45.0164957
Ar 30.2933321 20.9099707 45.0819638
Ar 27.3893519 21.8530888 22.4394609
Ar 30.5117774 15.5324686 27.2655879
Ar 28.2926513 15.0094770 30.6261103
Ar 28.6961029 19.5393357 25.3891797
Ar 27.1296619 16.3601032 27.6443271
Ar 27.2494588 15.1671345 34.1848069
Ar 28.9605239 15.5339595 39.5323360
Ar 28.1187020 18.5990931 30.1984342
Ar 27.1271518 19.0787476 33.5125558
Ar 29.9736305 10.6960029 44.3205072
Ar 28.1299481 14.1284691 43.4463247
Ar 29.7129344 19.6578382 39.3382287
Ar 25.2788099 18.6258362 41.7972455
Kr 36.4044960  1.1190075 23.8199099
Ar 37.3514087  3.2373412 26.8376279
Ar 39.2895784  0.9527980 41.1611357
Ar 32.0012010 44.5040185 29.7663143
Ar 33.8106883 18.2318046 26.9657059
Kr 36.5320149  2.4943625 31.8691970
Ar 32.5244581  6.5715025 27.2285482
Ar 34.6876890  4.3002541 29.4859863
Ar 32.7326455  8.0025791 35.5393553
Ar 33.5431088 21.3681025 39.0708497
Ar 40.4244980 44.1988305 36.0455176
Ar 36.6451494 21.9263846 31.5014506
Ar 33.3032724  1.5715495 39.4721450
Ar 34.8470559 22.2118964 43.1927435
Ar 35.6724388  5.6039451 36.8954592
Ar 37.7140791  3.5900030 42.1596141
Ar 39.0681659  6.1176851 43.0590558
Ar 36.4699338  6.5540198 27.0909159
Ar 38.7246810  9.5742658 43.8067390
Ar 35.1896370  7.7944438 24.2023962
Ar 38.1851312  5.2967335 30.6874712
Ar 40.1018413  4.1745687 35.0868579
Ar 37.2760097  4.7865207 22.8082379
Ar 34.4471505 12.9874870 33.2911820
Ar 34.0416633  7.9005425 38.9262865
Ar 34.8182534  9.4243305 33.0483066
Kr 38.2608010 10.9035950 32.8778715
Ar 33.1963380  9.7898616 43.7512499
Ar 32.0434920  4.6958191 38.3843381
Ar 37.4403062  6.2329899 39.7199991
Ar 38.4638764  9.8499230 39.7726076
Ar 35.2701176  6.9899998 43.5704921
Ar 32.4088703 12.6479762  0.5077650
Ar 41.9773016 11.1389626 27.5272085
Ar 40.8955792 13.5288991 25.6126795
Ar 31.5906013 19.0214569 29.5032291
Ar 35.1475233 11.1741220 24.8747049
Ar 33.7202785 14.7252648 27.0830583
Ar 40.7051739 16.6263205 31.2591234
Ar 32.3975215 15.4320975 30.3584317
Ar 33.1618716 11.0053952 36.8724762
Ar 39.7420247 13.8805841 40.2504398
Ar 33.7884197 15.2206413 39.9995272
Ar 37.0398714 14.6853546 42.8965148
Ar 35.5351376 11.5571940 39.6644161
Ar 35.2674067 11.1955878  0.4506711
Ar 34.3113564 16.7665600 44.3528730
Ar 35.7975235 18.0209200 40.8782797
Ar 35.8693748 16.7944448  2.0220507
Ar 41.3432365 16.8333074 27.4072009
Ar 35.5870432 16.2623794 22.9867804
Ar 37.2493235 16.9144808 29.7130816
Kr 37.4813725 14.8967001 32.7128403
Ar 40.7085959 11.5878184 30.7300757
Ar 36.8219136 20.1436658 28.3161016
Ar 34.2458638 18.2296644 31.2856444
Kr 31.1749774 16.6286891 36.7157700
Ar 33.6404866 18.5315982 35.8550254
Ar 30.0760238 17.7967914 33.0237205
Ar 37.8406344 20.9217235 42.2782602
Ar 31.7797881 17.7324231 41.3491567
Ar 36.7712770 15.5947164 38.6666583
Ar 38.9236632 16.8727351 44.7647668
Ar 30.6338844 22.4637957 37.5128297
Ar 38.9144552 44.9837385 44.1280103
Ar 45.3313235  0.7726010 26.7534743
Ar 42.0156808  1.6328086 43.4087026
Ar 39.1054132 22.3138802 26.3023603
Ar 40.2676156  1.1838687 31.8990211
Ar 43.4636806  4.7174763 29.2045734
Ar 40.5384756  4.8678620 27.1034983
Ar 41.7428674  5.1121251 32.0904220
Ar 37.8488551 18.3359827 32.2566805
Ar 43.5313734 24.9080382 32.9813990
Ar 45.1280088  4.8338267 35.7970293
Ar 42.6685743 42.7873884 38.7157218
Ar 39.1646462 17.3094194 41.2277779
Ar 42.2424291 19.2516305 42.2485823
Ar 43.5793758  3.3324512 38.9401153
Ar 37.8846036 43.9049926 38.8203508
Ar 33.4414964 10.4217251 21.7625097
Ar 40.2756052  6.3206120 24.1648414
Ar 43.6500506  7.0441607 44.0071112
Ar 38.6886438  9.1995390 24.5364320
Kr 35.7048978  6.3558197 33.7052639
Ar 42.7226555  6.1544226 37.7290888
Ar 44.0418693  7.5404478 26.9800454
Ar 43.2320411  6.9902217 34.4867476
Ar 39.2277532  7.6444352 37.1442394
Ar 24.4736204  6.8086634 39.4283238
Ar 44.9370111  8.5626074 37.6412703
Ar 36.4101945  9.6316000 36.2582526
Ar 40.3590328  1.6368160 37.8211768
Ar 41.9364820  4.7333632 42.0227520
Ar 39.4750196  7.3934101 33.5752465
Ar 41.6314936 11.2890921 37.9093794
Ar 42.0552557  8.8507821 41.4558365
Ar 21.8512468  9.1085983 27.5723968
Ar 43.8754259 10.9710900 24.7240668
Ar 37.1869568 13.4951931 29.3230513
Ar 38.2109557 11.9641779 26.6571014
Ar 37.2364387  9.8590846 29.6904747
Ar 45.7156363 10.4164207 27.4777534
Ar 36.5157828 13.5462682 36.0265595
Kr 43.1386140  9.0580661 30.6765328
Ar 40.7407915 14.4560679 34.6566504
Ar 41.8046570 10.1151084 34.1207832
Ar 37.4323223 20.1043098 38.2853831
Ar 43.0700537 14.5514248 38.9013242
Ar 41.9180607 15.8486349 42.7445749
Ar 20.5662624  7.8087862 40.6425397
Ar 43.2381824 14.5959492  0.1424797
Ar 40.0384814 18.8178390 25.0937431
Ar 42.9869749 16.0456994 24.3569818
Ar 43.6864776 18.6688322 22.2893085
Ar 45.5750436 19.8651067 25.6180722
Ar 43.1539013 14.3933836 28.5927900
Ar 36.8072890 17.4908790 35.3525574
Ar 43.8545926 18.3304433 30.0648870
Ar 40.2568752 20.0142223 29.2570670
Ar 39.8372808 17.3797358 37.5877002
Ar 42.6484792 21.7595343 36.7586263
Ar 42.4783846  2.1376594 34.6717655
Ar 43.7455831 16.2854245 36.2799515
Ar 41.1422038 12.6878076 42.8810854
Ar  1.1715716 16.9778148 38.9044446
Kr 26.6148476 19.3010144 38.5045585
Ar 41.4977725 20.1288947 45.5148938
Ar 26.1192955 23.0801185 18.8824750
Ar 25.7128136 29.2592418  0.8508680
Ar 21.0858962 28.3994867 45.3198916
Ar  0.4712196 23.4216290 23.8065569
Ar 26.9178906 43.4623964  0.6777288
Ar 31.4443141 44.5584449 12.6431499
Ar 26.1829518 27.7121282  3.8913684
Ar 27.3158034 25.7855043  6.5554774
Ar 39.7911568 42.8778659 11.3903529
Ar 25.0225597 25.0413614  8.7530081
Ar 24.3290735  1.0618082  8.1269986
Ar 26.5558073 27.8663893 10.1328652
Ar  0.8689025 44.5141850 16.2850204
Ar 21.4645643 21.6634476 16.5566523
Ar 21.0364974 25.5439784 13.3426262
Ar 40.7138744 24.2963532 22.0106795
Ar 43.3354329 28.9167253  0.4304796
Ar 21.0315148 29.3121459  3.6407431
Ar 23.0933957 35.7939420  4.7176797
Ar 43.1957903 31.8603000  2.6708429
Ar 22.3261816 26.4033023  2.2413319
Ar 24.0998780 27.6199659  7.0855522
Ar 32.1805170 31.6761738  7.2098874
Ar  1.8009616 28.2714592  9.7186040
Ar 25.2293182 31.0795206  9.4417064
Ar 27.6747191 31.5615302 12.7085751
Ar 25.4464696 34.3313806 12.0065215
Ar 24.5407595 29.9172929 12.7935872
Ar 23.2492120 24.6186658 17.0316555
Ar 26.3789974 29.3499332 22.5639330
Ar 26.8608428 32.9525165 19.0517462
Ar 42.8562536 27.5196821 19.7857498
Ar 44.3837204 34.1621640 18.1683103
Ar 23.3497570 31.8305952  6.4905448
Ar  0.2237027 35.0228524  0.9705512
Ar 44.6990301 38.3275211  7.2767357
Ar 41.2136373 31.1149626  7.5649455
Kr 28.9269229 32.2611303  8.7722085
Ar 26.2843891 37.8665344  6.0526317
Ar 25.7425286 34.3552349  7.9536967
Ar 22.1771540 33.5415696  9.2155311
Ar 27.1465481 37.1804037 10.0451896
Ar 26.9117735 39.7851856 12.1787395
Ar  3.3036945 37.4025416 13.3436934
Kr 23.9924245 35.9080758 15.0743946
Ar 25.8033432 34.9156763 22.7221874
Ar 25.7562383 41.1327401 19.6878408
Ar 41.0721334 41.2818890 19.0907657
Ar 24.0707997 37.5104904  1.6389787
Ar 30.3571847 43.3109035  1.8063279
Ar 27.6648743 45.1112404  4.7822390
Ar 27.3965235 38.8782791  2.0372452
Kr 23.7715815 40.2799681  7.0675413
Ar 44.7580354 39.3828231 10.9501130
Ar 28.5474842 41.9075241  5.1210696
Ar 45.1137668  0.6852536  6.8064859
Ar  1.6591877 42.7732332 11.1043991
Ar 24.4927142 39.5891963 15.6778076
Ar 25.8347264 43.0041591  7.4981169
Ar 26.1269603 38.3886675 22.0548925
Ar  2.0008014 36.3385785 17.4458382
Ar 28.6372153 41.0659711 44.7357397
Ar 23.3884292  0.3024095 15.4414487
Kr 22.2147221  0.4305269 22.4815855
Ar 27.3078450 42.9904410 15.0581415
Ar 28.5542829 25.0419557  1.0463255
Ar 28.2517600 27.4681185 19.9739772
Ar 29.5655382 29.0970843  3.2642162
Ar 25.1603178 24.4286468  3.6560075
Ar 32.8929041 23.6517753  8.4312769
Ar 30.0079433 25.0819497  4.0046736
Ar 32.9877129 26.8302715  8.8212912
Ar 31.6754248 26.6298573 12.3603043
Ar 31.5350472 39.5068123 16.7626878
Ar 30.7938729 42.9555410  7.3206365
Ar 26.7108792 24.3685355 11.9378981
Ar 26.6877480 26.6205195 16.9065044
Kr 29.1077988 44.2658280 20.2942850
Ar 29.2071778 24.4136655 14.3421582
Ar 25.2376257 29.7895994 18.2954819
Kr 28.9545000 35.4709682 24.5071736
Ar 30.2028770 29.9956239 24.1225863
Ar 31.4172953 33.2879859 22.6852843
Ar 26.3872358 29.8686409  6.6250976
Ar 30.4228053 27.6018026  6.9387754
Ar 32.7408560  1.5441006 10.1445071
Ar 32.7388860 29.4215586  4.5948261
Ar 30.5034090 29.1915361  9.8229166
Ar 31.1713704 29.5390528 14.0729742
Ar 33.9109797 44.2929929  9.3539040
Ar 32.0422862 25.9113910 16.0463343
Ar 28.8061681 30.3600753 16.1023440
Ar 27.0219161 33.3843242 15.7092508
Ar 33.6005246 26.4938247  2.4891964
Ar 33.0194874 29.5293079 21.3505024
Ar 29.3070529 30.6005627 19.4069069
Ar 31.5167850 35.2274640  2.3126548
Ar 33.6927956 37.8818952  2.2053985
Ar 33.4884244 39.6655359 22.9707009
Ar 28.9700855 33.3607458  4.7765010
Ar 32.9157134 36.6871245  5.8828583
Ar 36.1020570 35.7302507  7.2609399
Ar 29.7997139 37.4936688 45.4907894
Ar 30.0963784 35.3503409  7.1664305
Kr 32.0449744 32.0693781 12.1593120
Ar 32.6607737 32.8854680 16.1732883
Ar 32.5740247 34.8043836  9.8569013
Ar 30.0602743 34.1573296 14.6451569
Ar 31.3767025 34.4438270 18.7790010
Ar 32.1118129 36.9962134 20.9240642
Ar 34.3604305 34.5414479 13.1040276
Ar 26.1467898 36.4281933 18.6158562
Ar 26.1342547 34.4803028  2.8120080
Ar 33.5032949 43.6706221 22.4390080
Ar 29.7102798 45.2244802 24.1518692
Ar 31.7661435 41.3268665 44.9013633
Ar 29.5778770 37.3374539  4.2471651
Ar 30.4134867 37.9646376 11.2807406
Ar 31.4954311 40.0523345  5.2387707
Ar 28.9698042 39.7669700  8.4374251
Ar 29.1454431 35.1447614 11.5678048
Ar 29.5929501 40.6314928 14.2712222
Ar 30.8406818 41.7334244 10.4090643
Ar 27.7191108 43.5186153 10.4285681
Ar 28.8798031 36.5658245 21.2602433
Ar 28.8357384 39.8220571 18.9141229
Ar 26.8933417 45.4348585 13.1326549
Ar 21.8624337 42.4472079 21.1879161
Kr 36.1360309 22.5638157  0.2837599
Ar 37.7054015 26.8608601  4.2984268
Ar 37.6704237 24.9821844 24.3687082
Ar 34.9480410 25.1288310  5.7951868
Ar 33.1846145 42.8396037  3.6075143
Kr 34.9479539 29.0945719 11.0902904
Ar 35.0565425 32.6133321  8.8410008
Ar 35.6366325 28.6159309  6.7069908
Ar 34.8039117 26.6622772 13.4451229
Ar 33.6568662  1.9569809 14.1234473
Ar 39.3527893 25.4133154 12.7940526
Ar 36.5339557  0.1228363 10.9264152
Ar 33.1443569 25.4534790 18.9381992
Ar 33.7045361 43.3633710 18.6124191
Ar 37.3602085 25.6434375 16.3577912
Ar 30.8067866 26.9129134 22.1926857
Ar 36.3943783 27.2617923 21.3594150
Ar 39.7555567 33.4217125  3.5931407
Ar 39.4604240 28.1850481 22.4458634
Ar 32.1091023 30.2370030  0.9095533
Ar 36.2321056 30.4686843  4.1626423
Ar 38.4978746 28.7710717 12.9780065
Ar 39.4807299 29.9712050  4.6838050
Ar 38.3973406 36.0438532 10.2099005
Ar 31.7675946 29.0535598 17.7364667
Ar 36.4199570 31.9795735 15.2506940
Kr 37.9728476 31.6963457 10.7462367
Ar 34.6511909 34.2684938 21.0300160
Ar 37.4916815 23.2289302 21.8273525
Ar 35.5317231 28.4942295 17.8854297
Ar 39.0878064 30.4876933 18.0231606
Ar 37.0205281 31.2740306 21.9710156
Ar 36.0453315 34.8524948 25.0756596
Ar 43.6563760 35.1219494  4.0633831
Ar 39.3943653 36.9722090  2.6747603
Ar 31.0348995 39.8653829  2.0946859
Ar 33.1294272 32.6963900  3.2309766
Ar 36.7566423 37.8123247  4.7089115
Ar 41.1831184 40.5470085  8.4936350
Ar 33.9864116 40.5704059  8.7436452
Ar 34.2726537 37.5481004 10.5519430
Ar 39.5859217 33.7616344 16.3508209
Ar 34.4902409 36.6169489 17.0763893
Ar 38.1404450 38.0126015 15.4322625
Ar 37.6922765 35.4499471 13.3375685
Ar 39.1317214 35.2935402 22.1729738
Ar 36.1167384 37.0529748 20.8503743
Ar 31.6081753 41.2878784 20.6096841
Ar 37.6102465 38.3422531 24.0029747
Ar 41.9843158 38.0845663  4.7397671
Ar 36.2621200 41.3102386  1.8299456
Ar 38.7483953 41.2770943  4.9262444
Kr 38.0386560 38.7770831  7.6661777
Ar 39.8726106 38.5150940 11.2188095
Ar 36.3223103 45.0958494  7.0868685
Ar 35.5264877 41.2690999  5.5888648
Kr 33.1317064 40.3962810 12.7298704
Ar 35.2734310 40.8863557 15.6749126
Ar 37.3483778 41.5183516  9.2466326
Ar 37.9746540 43.2304102 15.6288714
Ar 28.1257743 37.2930292 15.0456763
Ar 33.8044986 39.3152506 18.9663558
Ar 36.9701916 39.4739431 18.5830626
Ar 30.6388380 43.5659706 15.7186660
Ar 36.4655764 20.5703120 24.3503027
Ar 43.3071735 25.9060063  2.7379031
Ar 41.1994508 20.3126324 19.2984998
Ar 37.9733102 44.2867905  1.7433211
Ar 37.8834657 25.2031523  7.4049133
Ar 45.4954904 26.2213612  6.5037678
Ar 41.3040900 26.7753337  6.6295150
Ar 43.4238506 28.8171809 10.1153492
Ar 40.0146256 45.3414663  8.3384495
Ar 44.7099149 41.3489232 15.2327921
Ar 44.0774551 25.6465907 10.9975849
Ar  0.8925302 22.1832471 15.2237937
Ar 42.5842218 44.1096203 17.3823813
Ar 39.8935555 44.9998403 22.0237087
Ar 43.5419906 20.9098170 17.2485099
Ar 38.5577756 22.4730455 18.1773596
Ar 35.7681850 31.8214541  0.8751203
Ar 40.3142095 23.3411977  1.4132374
Ar 42.6993579 28.1111781 22.8253399
Ar 39.3050381 30.5168252  1.3930927
Kr 38.3264174 28.9705546  8.8245834
Ar 45.2148181 28.0028054 14.9653552
Ar 43.7789856 29.3071911  6.6968337
Ar 41.0332287 31.2647183 13.1690183
Ar 42.2115925 27.4465200 13.1520521
Ar 24.3308122 27.0155030 14.4515100
Ar 44.4514585 31.9075280 12.2760392
Ar 36.7592657 34.4553633 18.3508243
Ar 41.7193109 23.8795387 15.0595429
Ar 38.9595024 26.2524042 19.2238752
Ar 40.4655079 26.9264741 15.8376369
Ar 41.1124911 32.3504894 21.3977535
Ar 42.6603821 35.6382302 23.3538719
Ar 23.1706111 36.6845750  7.9546211
Ar 43.2747800 33.3500718 45.0280929
Ar 40.0519103 35.6226335  6.3899896
Ar 36.1437579 33.9176809  3.8563632
Ar 37.9854672 32.5357446  6.7945854
Ar 43.0431086 33.7506900  7.2620008
Ar 36.6729699 38.8100866 12.6606261
Kr 41.2416959 34.7786732 11.9011163
Ar 42.8509395 34.4433295 15.1854374
Ar 44.8394148 35.3791224 11.8023715
Ar 34.3679994 44.2913214 13.1240026
Ar 42.0337316 30.1925263 16.2415878
Ar  0.2148256 36.6477803 20.1470145
Ar 23.1061841 32.8883558 18.1540705
Ar 40.5550645 38.7166646 21.5769235
Ar 40.0852257 39.9503116  1.3874907
Ar 41.8309155 37.1940006  0.0408062
Ar 45.3141784 42.0544332  1.9626398
Ar 41.1821541 43.1601661  0.1090669
Ar 41.8728701 36.9540392  9.1308213
Ar 42.5055339 38.2572252 13.0325790
Ar 42.7324867 41.5052516  4.8705836
Ar 41.1746054 44.3984250  4.8552347
Ar 42.7330659 38.0678494 17.2024216
Ar 41.2748588 40.9778618 15.4708781
Ar 41.7248399 24.4757518  8.8420427
Ar  0.4438714 38.1563267 15.4232722
Ar 39.2239101 36.1128034 19.0744911
Ar 44.5330618 39.6629803 19.4807094
Kr 24.2907010 43.1626627 17.1541640
Ar 35.9901250 41.5740541 21.2668983
Ar 25.4325291 26.5593010 43.8080043
Ar 28.0670229 25.4612470 22.5579765
Ar 22.0332590 29.2023945 18.6882173
Ar  0.6311796 24.0123228 44.3827570
Ar 26.3538302  2.4050248 30.2054382
Ar 27.4061262 45.2042703 33.7776830
Ar 30.0915096 27.8589862 28.9267219
Ar 26.2936919 24.1985591 29.7717529
Ar 37.7176502 44.2817830 31.2439936
Ar 23.1199768 23.5735470 35.4345158
Ar 29.5467737  4.0260317 30.6055067
Ar 21.8976150 26.9177247 32.6217016
Ar  2.1332447 44.0970716 35.8580173
Ar 24.7878181 21.8185066 41.8624679
Ar 24.3926284 23.0441467 38.7012465
Ar 44.6934553 26.6866943 42.5567166
Ar 42.8881012 26.2117095 25.3532148
Ar 26.0460465 26.4973457 27.3857749
Ar 25.3491701 30.4923903 25.8489330
Ar 45.4138185 32.6860444 26.8396327
Ar 23.7421435 25.5280643 24.8888271
Ar 24.7729041 27.8528899 30.2339682
Ar 29.2983937 35.0547589 28.2335721
Ar 43.0382864 30.6011936 30.4165487
Ar 28.6542978 28.7437602 31.8812960
Ar 26.2868948 29.2236280 35.6202665
Ar 27.8557300 31.8338595 37.2918451
Ar 25.8582201 29.4916887 39.5540666
Ar 22.9605143 25.5635554 40.8112102
Ar 26.0233214 34.1370504 44.5904601
Ar 26.6039653 35.9443063 41.2550045
Ar 42.7504151 29.1742861 40.8982259
Ar  0.1039587 29.8167236 42.4139255
Ar 23.1872212 32.3488880 29.0949639
Ar 45.6137146 34.1613368 23.6045930
Ar 43.9179573 38.2173867 28.7637245
Ar 40.8576172 32.5574485 28.1689453
Kr 27.6087795 32.2686548 32.0867159
Ar 27.3416276 36.8185627 29.8661203
Ar 23.7409078 34.2108002 32.5151610
Ar 25.5088964 32.9815788 35.4418648
Ar 26.8519275 35.8088197 37.6192985
Ar 26.1064617 42.7127544 35.2827227
Ar  0.4234166 40.5308318 34.6729820
Kr 22.0259904 32.8306215 36.1067386
Ar 30.3819303 35.0129833 43.0374095
Ar 27.3199659 39.9299539 41.3051580
Ar 43.7571353 39.9334202 45.2258165
Ar 24.9889305 39.7069185 29.5805645
Ar 24.2740971 43.2787960 23.8745364
Ar 28.7146271 42.8134578 29.1874325
Ar 21.7868847 41.3115185 25.3833316
Kr 25.4617938 39.4899119 33.2093280
Ar 44.6192011 38.7248824 32.4619562
Ar 24.5992687 42.7349120 27.7261620
Ar 44.6376626 45.2704200 30.7841531
Ar 44.5893019 41.5510821 30.3989017
Ar 24.6135007 38.2852065 37.0922477
Ar 23.1936163 45.1751427 34.2751711
Ar 26.2175102 37.2474121 44.9680866
Ar  0.3944173 38.0395107 38.3207793
Ar 24.9312498 44.6123880 21.0149994
Ar 25.5157765 45.1685278 37.8230873
Kr 24.6465396 40.4433759  3.1941439
Ar 28.5069466 42.9349536 38.2625713
Ar 31.1929137 25.8834311 25.6056170
Ar 27.9676024 24.0756863 43.4265297
Ar 28.2529643 27.4562777 25.3559663
Ar 29.6409130 23.1811496 28.4653263
Ar 38.5065101 24.8847806 33.4469876
Ar 33.0989767 25.7601592 28.4719196
Ar 31.1822089 25.6025689 31.9405008
Ar 30.1052866 25.1941994 35.5577829
Ar 29.0589944 41.4934554 35.0882340
Ar 30.2985958 44.0006930 32.7491665
Ar 27.5256464 26.2519080 37.2243751
Ar 26.4582010 25.9785305 40.4137571
Kr 32.4602385 43.6543612 40.8963787
Ar 30.1495875 25.5096447 39.4014655
Ar 26.2189652 30.3574482 42.8786694
Kr 24.2274564 31.4502083  3.0966421
Ar 28.8485647 28.0878968 45.3044578
Ar 28.5543728 31.3355065  0.8188620
Ar 27.5519728 30.6055486 28.6578343
Ar 33.4455957 28.1614050 30.6604403
Ar 30.6882621  1.6177236 33.9968132
Ar 28.0667095 32.2559822 25.7365437
Ar 29.7920522 29.5183251 35.2916575
Ar 34.4052679 31.3483713 32.5612393
Ar 34.5273706  2.1156857 35.6284743
Ar 32.2044064 28.4290178 37.9932397
Ar 32.3386010 31.8891197 40.6705115
Ar 29.3921823 28.6934565 39.8263656
Ar 34.6236637 26.8757253 24.3305633
Ar 35.3790337 28.2854585 40.5092449
Ar 31.6120728 27.3326659 41.9558672
Ar 29.4627041 38.9276115 23.6575960
Ar 34.6771961 38.3828610 26.2712536
Ar 33.0826797 37.3336674 43.4833364
Ar 25.9499439 34.2065021 27.9324071
Ar 32.5771231 36.6893243 24.4762593
Ar 32.6740511 34.1620502 31.1794114
Ar 30.8057380 41.9554758 24.3155578
Ar 26.4752218 36.1012132 34.1329563
Kr 30.9378113 31.7460943 32.6888114
Ar 32.0263416 32.3432681 37.4167757
Ar 30.4770690 38.0960485 27.5190033
Ar 29.4610921 37.2218664 40.9068717
Ar 28.6617676 33.1167132 40.3825786
Ar 32.0794052 33.4801206 45.3374533
Ar 34.0066280 34.7796644 42.2891284
Ar 23.5733063 35.0785010 38.6015588
Ar 26.6279268 37.9655166 26.5389544
Ar 35.8708973 39.6665067 42.7102077
Ar 34.4758180 42.4709393 44.2450480
Ar 27.5388777 41.7705203 22.7279546
Ar 28.2274870 41.3039809 26.1177099
Ar 29.4588860 38.1966953 32.6883368
Ar 31.9060685 40.9055478 31.1128390
Ar 28.0271841 40.4628565 31.0739913
Ar 29.2757322 33.7396906 34.8967793
Ar 28.0812610 39.4995906 37.7845536
Ar 24.9909716 43.7144683 31.9257526
Ar 22.7452933  1.9645953 37.2900063
Ar 29.8306786 31.4237591 43.0410478
Ar 30.6967467 40.6717016 41.8186760
Ar 31.3891048 45.2922594 37.5004385
Ar 24.6896414 42.8366311 42.8031198
Kr 34.0985721 23.4683274 23.5761130
Ar 35.9858984 23.3183265 27.0794924
Ar 39.8768897 26.7153301  1.5451559
Ar 33.2485642 21.9260594 28.5325608
Ar 33.4663039 44.3842606 25.7096268
Kr 36.6718323 28.1259157 32.5744847
Ar 31.3267801 31.1341684 29.4658151
Ar 36.7564598 26.4792953 29.5570458
Ar 33.3838673 27.5390876 34.7897321
Ar 36.4494126  2.2225957 38.9786536
Ar 39.6098718 21.1588309 34.5374869
Ar 38.2843323  0.5467031 34.5467874
Ar 33.4254062 25.1007039 40.0500702
Ar 33.3036412  1.9780612 44.5334143
Ar 37.2916157 23.0463456 36.2347777
Ar 30.9707913 25.4107390 44.6570144
Ar 36.3087580 27.8742380  0.9846409
Ar 34.1850326 32.1721707 27.6892834
Ar 37.6805899 31.3504180 43.6142175
Ar 33.7870352 30.8098618 24.0917021
Ar 35.2878196 28.7291406 27.0945417
Ar 40.9014768 25.3381939 35.2323298
Ar 39.6133105 27.5696907 25.9742499
Ar 33.0685736 37.8820051 32.6278627
Ar 36.4506059 30.6245984 35.2799779
Ar 36.1836700 27.0058579 37.1254428
Kr 38.2727867 34.4646661 34.8179873
Ar 35.4315867 34.9910856 37.2329819
Ar 33.7428677 27.3588252 44.1475366
Ar 34.9678801 31.2217375 38.1459705
Ar 36.3696668 33.3399035 40.7482141
Ar 34.3395855 31.1166830 43.3234858
Ar 35.1249311 35.0182142  0.3075370
Ar 43.1750850 35.6940649 26.6452245
Ar 37.6039106 37.4835521 27.7419925
Ar 32.3046675 41.1805096 27.8332698
Ar 31.1736133 32.8593055 25.9900675
Ar 34.9765930 38.4171038 29.9237445
Ar 41.3953582 39.7145665 30.2618434
Ar 35.2823614 41.7528945 31.7660541
Ar 34.0606946 33.8121721 34.7231215
Ar 41.3014151 36.2634150 33.0887192
Ar 36.1789198 37.6755637 39.5577467
Ar 39.9007972 38.5992096 35.7913206
Ar 36.7287113 37.1544510 35.4156424
Ar 39.5225817 33.7746201  0.0653880
Ar 38.5146337 37.0143085 41.7048255
Ar 32.4462653 36.5178684 39.5550524
Ar 36.9404879 38.3997550  0.4164745
Ar 41.5704512 42.1850478 27.3454724
Ar 36.8384281 43.3743702 24.2247961
Ar 37.6909153 40.8839819 26.2347657
Kr 38.0153724 40.6295892 29.6414668
Ar 37.4858876 37.9675126 32.2165637
Ar 35.0843022  1.2055372 28.7048649
Ar 35.2884194 43.7243619 28.6058266
Kr 31.1068029 37.3680700 36.5246431
Ar 34.6377148 43.9956994 37.4349833
Ar 32.5063785 42.3989821 34.8964297
Ar 37.8615011 40.6195098 37.3997749
Ar 31.6014095 40.6166481 38.3784560
Ar 35.1321598 40.9872345 40.0128989
Ar 39.0526104 40.2418390 40.3099341
Ar 35.6919381 45.5367867 41.4839695
Ar 38.7531149 27.5062455 43.6753748
Ar 43.9496051 21.8078148 31.3220842
Ar 41.8017587 25.5428363 44.1984324
Ar 39.9324077  1.3206222 25.0423053
Ar 38.9475713 23.6560513 29.0989447
Ar 43.6556740 25.5824242 28.7332249
Ar 42.6205624 22.1926287 27.3698994
Ar 40.3248838 26.9376927 30.2884589
Ar 39.0539804 45.1776152 27.7651995
Ar 44.4218394 43.8331686 34.0192884
Ar 43.1337162 27.9182827 34.3111595
Ar 40.4432320 21.4918497 40.3033041
Ar 41.1718951 44.1274670 41.9362053
Ar 44.9042612 44.5057691 42.4248275
Ar 42.4355377 24.8553731 40.8253412
Ar 38.5133591 24.0447072 43.5527001
Ar 37.9342488 31.0103893 25.9141383
Ar 41.9653529 21.4284702 23.8433289
Ar 40.8801439 31.0422884 44.3404788
Ar 42.7719699 32.5284020 24.7168344
Kr 38.2160313 30.5286505 29.4140179
Ar 40.6530543 28.6015964 38.2071298
Ar 42.2359076 29.8244331 27.0383091
Ar 39.8791532 29.4087885 32.7888821
Ar 39.3351713 25.0081875 39.6860267
Ar 23.7120610 26.6443339 37.0546412
Ar 42.0545348 33.0813580 34.2876504
Ar 41.4619494 35.5405626 36.6848159
Ar 36.2297266 24.8082432 41.6395895
Ar 38.6074760 28.6169347 40.5670825
Ar 38.9103925 32.0611993 37.3530520
Ar 40.7555878 31.7417822 40.8047703
Ar 43.8369104 35.6350688 40.3132324
Ar 23.5412506 35.9477024 29.3438528
Ar 39.5121423 34.7358184 25.4117998
Ar 36.9867585 34.0932362 28.3574644
Ar 33.3603327 35.6001555 28.1784021
Ar 35.9892850 34.9290451 31.6992926
Ar 42.9583237 35.6219150 30.5529567
Ar 34.4365158 39.4350780 35.5742158
Kr 39.3895095 33.4565372 31.3914962
Ar 43.6930604 37.7987979 35.3245654
Ar  0.6439217 36.3166663 30.1787419
Ar 36.3853522 42.8158691 34.6416114
Ar 44.7452884 33.5898378 36.5873405
Ar 44.6047897 36.8311255 43.8570681
Ar 23.4985748 28.4649388 41.8556426
Ar 41.3996022 35.2529876 42.4679671
Ar 40.5461640 41.4944879 23.1681956
Ar 40.6210819 39.1160682 25.5482758
Ar 43.3028649 39.1248949 23.2439692
Ar 42.4209864 44.0362292 24.5576520
Ar 40.1888437 35.8041361 28.6350024
Ar 39.9769340 41.6586149 33.0909332
Ar 41.4847302 43.4800697 30.7256609
Ar 42.0077795  1.4998664 27.8859398
Ar 41.7501270 38.3500916 38.7929976
Ar 42.8826556 41.1055899 35.5634821
Ar 40.8137700 23.1765012 32.0537374
Ar  0.6914264 41.7082508 39.0200785
Ar 39.2817407 34.9370478 38.9946318
Ar 43.2847410 40.5407281 41.7761165
Kr 24.7350084 41.7075701 38.5009176
Ar 38.7294517 41.1099680 43.9114243
